# vtk DataFile Version 3.0
vtk output 
ASCII

DATASET UNSTRUCTURED_GRID
POINTS   1381   float
 0.000000000000    0.000000000000    0.000000000000
 0.050000000000    0.000000000000    0.000000000000
 0.002083333000    0.000000000000    0.000000000000
 0.004166667000    0.000000000000    0.000000000000
 0.006250000000    0.000000000000    0.000000000000
 0.008333333000    0.000000000000    0.000000000000
 0.010416670000    0.000000000000    0.000000000000
 0.012500000000    0.000000000000    0.000000000000
 0.014583330000    0.000000000000    0.000000000000
 0.016666670000    0.000000000000    0.000000000000
 0.018750000000    0.000000000000    0.000000000000
 0.020833330000    0.000000000000    0.000000000000
 0.022916670000    0.000000000000    0.000000000000
 0.025000000000    0.000000000000    0.000000000000
 0.027083330000    0.000000000000    0.000000000000
 0.029166670000    0.000000000000    0.000000000000
 0.031250000000    0.000000000000    0.000000000000
 0.033333330000    0.000000000000    0.000000000000
 0.035416670000    0.000000000000    0.000000000000
 0.037500000000    0.000000000000    0.000000000000
 0.039583330000    0.000000000000    0.000000000000
 0.041666670000    0.000000000000    0.000000000000
 0.043750000000    0.000000000000    0.000000000000
 0.045833330000    0.000000000000    0.000000000000
 0.047916670000    0.000000000000    0.000000000000
 0.050000000000    0.100000000000    0.000000000000
 0.050000000000    0.002083333000    0.000000000000
 0.050000000000    0.004166667000    0.000000000000
 0.050000000000    0.006250000000    0.000000000000
 0.050000000000    0.008333333000    0.000000000000
 0.050000000000    0.010416670000    0.000000000000
 0.050000000000    0.012500000000    0.000000000000
 0.050000000000    0.014583330000    0.000000000000
 0.050000000000    0.016666670000    0.000000000000
 0.050000000000    0.018750000000    0.000000000000
 0.050000000000    0.020833330000    0.000000000000
 0.050000000000    0.022916670000    0.000000000000
 0.050000000000    0.025000000000    0.000000000000
 0.050000000000    0.027083330000    0.000000000000
 0.050000000000    0.029166670000    0.000000000000
 0.050000000000    0.031250000000    0.000000000000
 0.050000000000    0.033333330000    0.000000000000
 0.050000000000    0.035416670000    0.000000000000
 0.050000000000    0.037500000000    0.000000000000
 0.050000000000    0.039583330000    0.000000000000
 0.050000000000    0.041666670000    0.000000000000
 0.050000000000    0.043750000000    0.000000000000
 0.050000000000    0.045833330000    0.000000000000
 0.050000000000    0.047916670000    0.000000000000
 0.050000000000    0.050000000000    0.000000000000
 0.050000000000    0.052083330000    0.000000000000
 0.050000000000    0.054166670000    0.000000000000
 0.050000000000    0.056250000000    0.000000000000
 0.050000000000    0.058333330000    0.000000000000
 0.050000000000    0.060416670000    0.000000000000
 0.050000000000    0.062500000000    0.000000000000
 0.050000000000    0.064583330000    0.000000000000
 0.050000000000    0.066666670000    0.000000000000
 0.050000000000    0.068750000000    0.000000000000
 0.050000000000    0.070833330000    0.000000000000
 0.050000000000    0.072916670000    0.000000000000
 0.050000000000    0.075000000000    0.000000000000
 0.050000000000    0.077083330000    0.000000000000
 0.050000000000    0.079166670000    0.000000000000
 0.050000000000    0.081250000000    0.000000000000
 0.050000000000    0.083333330000    0.000000000000
 0.050000000000    0.085416670000    0.000000000000
 0.050000000000    0.087500000000    0.000000000000
 0.050000000000    0.089583330000    0.000000000000
 0.050000000000    0.091666670000    0.000000000000
 0.050000000000    0.093750000000    0.000000000000
 0.050000000000    0.095833330000    0.000000000000
 0.050000000000    0.097916670000    0.000000000000
 0.000000000000    0.100000000000    0.000000000000
 0.047916670000    0.100000000000    0.000000000000
 0.045833330000    0.100000000000    0.000000000000
 0.043750000000    0.100000000000    0.000000000000
 0.041666670000    0.100000000000    0.000000000000
 0.039583330000    0.100000000000    0.000000000000
 0.037500000000    0.100000000000    0.000000000000
 0.035416670000    0.100000000000    0.000000000000
 0.033333330000    0.100000000000    0.000000000000
 0.031250000000    0.100000000000    0.000000000000
 0.029166670000    0.100000000000    0.000000000000
 0.027083330000    0.100000000000    0.000000000000
 0.025000000000    0.100000000000    0.000000000000
 0.022916670000    0.100000000000    0.000000000000
 0.020833330000    0.100000000000    0.000000000000
 0.018750000000    0.100000000000    0.000000000000
 0.016666670000    0.100000000000    0.000000000000
 0.014583330000    0.100000000000    0.000000000000
 0.012500000000    0.100000000000    0.000000000000
 0.010416670000    0.100000000000    0.000000000000
 0.008333333000    0.100000000000    0.000000000000
 0.006250000000    0.100000000000    0.000000000000
 0.004166667000    0.100000000000    0.000000000000
 0.002083333000    0.100000000000    0.000000000000
 0.000000000000    0.097916670000    0.000000000000
 0.000000000000    0.095833330000    0.000000000000
 0.000000000000    0.093750000000    0.000000000000
 0.000000000000    0.091666670000    0.000000000000
 0.000000000000    0.089583330000    0.000000000000
 0.000000000000    0.087500000000    0.000000000000
 0.000000000000    0.085416670000    0.000000000000
 0.000000000000    0.083333330000    0.000000000000
 0.000000000000    0.081250000000    0.000000000000
 0.000000000000    0.079166670000    0.000000000000
 0.000000000000    0.077083330000    0.000000000000
 0.000000000000    0.075000000000    0.000000000000
 0.000000000000    0.072916670000    0.000000000000
 0.000000000000    0.070833330000    0.000000000000
 0.000000000000    0.068750000000    0.000000000000
 0.000000000000    0.066666670000    0.000000000000
 0.000000000000    0.064583330000    0.000000000000
 0.000000000000    0.062500000000    0.000000000000
 0.000000000000    0.060416670000    0.000000000000
 0.000000000000    0.058333330000    0.000000000000
 0.000000000000    0.056250000000    0.000000000000
 0.000000000000    0.054166670000    0.000000000000
 0.000000000000    0.052083330000    0.000000000000
 0.000000000000    0.050000000000    0.000000000000
 0.000000000000    0.047916670000    0.000000000000
 0.000000000000    0.045833330000    0.000000000000
 0.000000000000    0.043750000000    0.000000000000
 0.000000000000    0.041666670000    0.000000000000
 0.000000000000    0.039583330000    0.000000000000
 0.000000000000    0.037500000000    0.000000000000
 0.000000000000    0.035416670000    0.000000000000
 0.000000000000    0.033333330000    0.000000000000
 0.000000000000    0.031250000000    0.000000000000
 0.000000000000    0.029166670000    0.000000000000
 0.000000000000    0.027083330000    0.000000000000
 0.000000000000    0.025000000000    0.000000000000
 0.000000000000    0.022916670000    0.000000000000
 0.000000000000    0.020833330000    0.000000000000
 0.000000000000    0.018750000000    0.000000000000
 0.000000000000    0.016666670000    0.000000000000
 0.000000000000    0.014583330000    0.000000000000
 0.000000000000    0.012500000000    0.000000000000
 0.000000000000    0.010416670000    0.000000000000
 0.000000000000    0.008333333000    0.000000000000
 0.000000000000    0.006250000000    0.000000000000
 0.000000000000    0.004166667000    0.000000000000
 0.000000000000    0.002083333000    0.000000000000
 0.020850460000    0.020569820000    0.000000000000
 0.024646110000    0.024928190000    0.000000000000
 0.045556990000    0.003118275000    0.000000000000
 0.046881730000    0.095556990000    0.000000000000
 0.004443014000    0.096881730000    0.000000000000
 0.003084935000    0.004453381000    0.000000000000
 0.003078188000    0.095528120000    0.000000000000
 0.001402511000    0.096514160000    0.000000000000
 0.003485844000    0.098597490000    0.000000000000
 0.001402511000    0.098597490000    0.000000000000
 0.045528080000    0.096921830000    0.000000000000
 0.046514160000    0.098597490000    0.000000000000
 0.048597490000    0.096514160000    0.000000000000
 0.048597490000    0.098597490000    0.000000000000
 0.046921810000    0.004471885000    0.000000000000
 0.048597490000    0.003485844000    0.000000000000
 0.046514160000    0.001402511000    0.000000000000
 0.048597490000    0.001402511000    0.000000000000
 0.004457145000    0.003079607000    0.000000000000
 0.003485844000    0.001402511000    0.000000000000
 0.001402511000    0.003485844000    0.000000000000
 0.001402511000    0.001402511000    0.000000000000
 0.025197340000    0.070832390000    0.000000000000
 0.025134870000    0.066663850000    0.000000000000
 0.025134390000    0.062497810000    0.000000000000
 0.025134660000    0.058332970000    0.000000000000
 0.025134710000    0.054166600000    0.000000000000
 0.025134720000    0.049999980000    0.000000000000
 0.025134710000    0.045833290000    0.000000000000
 0.025134690000    0.041666440000    0.000000000000
 0.025134520000    0.037498640000    0.000000000000
 0.025133550000    0.033325200000    0.000000000000
 0.025115590000    0.029150360000    0.000000000000
 0.026640670000    0.025845350000    0.000000000000
 0.026809640000    0.028052280000    0.000000000000
 0.026826760000    0.030137970000    0.000000000000
 0.026844670000    0.032284690000    0.000000000000
 0.026845500000    0.034373840000    0.000000000000
 0.026845500000    0.036457170000    0.000000000000
 0.026845640000    0.038541470000    0.000000000000
 0.026845640000    0.040624810000    0.000000000000
 0.026845670000    0.042708300000    0.000000000000
 0.026845670000    0.044791630000    0.000000000000
 0.026845670000    0.046874990000    0.000000000000
 0.026845670000    0.048958320000    0.000000000000
 0.026845670000    0.051041650000    0.000000000000
 0.026845660000    0.053124950000    0.000000000000
 0.026845660000    0.055208240000    0.000000000000
 0.026845620000    0.057291350000    0.000000000000
 0.026845580000    0.059374430000    0.000000000000
 0.026845390000    0.061456460000    0.000000000000
 0.026845150000    0.063538230000    0.000000000000
 0.026843960000    0.065613750000    0.000000000000
 0.026844680000    0.067698020000    0.000000000000
 0.026837550000    0.069734490000    0.000000000000
 0.026899280000    0.071818760000    0.000000000000
 0.026867690000    0.073604660000    0.000000000000
 0.025614390000    0.075084890000    0.000000000000
 0.023599910000    0.074148570000    0.000000000000
 0.023467770000    0.071936830000    0.000000000000
 0.023406040000    0.069852560000    0.000000000000
 0.023375940000    0.067722100000    0.000000000000
 0.023375210000    0.065637830000    0.000000000000
 0.023368750000    0.063541880000    0.000000000000
 0.023368980000    0.061460110000    0.000000000000
 0.023392630000    0.059374690000    0.000000000000
 0.023392670000    0.057291610000    0.000000000000
 0.023392670000    0.055208280000    0.000000000000
 0.023392680000    0.053124990000    0.000000000000
 0.023392680000    0.051041660000    0.000000000000
 0.023392680000    0.048958330000    0.000000000000
 0.023392680000    0.046874990000    0.000000000000
 0.023392670000    0.044791630000    0.000000000000
 0.023392670000    0.042708300000    0.000000000000
 0.023392650000    0.040624810000    0.000000000000
 0.023392650000    0.038541470000    0.000000000000
 0.023392510000    0.036457170000    0.000000000000
 0.023392510000    0.034373840000    0.000000000000
 0.023391680000    0.032284690000    0.000000000000
 0.023421700000    0.030232230000    0.000000000000
 0.023404580000    0.028146540000    0.000000000000
 0.023404820000    0.026374780000    0.000000000000
 0.026188310000    0.023708890000    0.000000000000
 0.027891400000    0.022106000000    0.000000000000
 0.028351840000    0.026832970000    0.000000000000
 0.028538720000    0.031186610000    0.000000000000
 0.028556620000    0.035416670000    0.000000000000
 0.028556620000    0.039583330000    0.000000000000
 0.028556620000    0.043750000000    0.000000000000
 0.028556620000    0.047916660000    0.000000000000
 0.028556620000    0.052083280000    0.000000000000
 0.028556580000    0.056249700000    0.000000000000
 0.028556350000    0.060414840000    0.000000000000
 0.028554960000    0.064572400000    0.000000000000
 0.028546630000    0.068684390000    0.000000000000
 0.028507900000    0.072506760000    0.000000000000
 0.027223000000    0.075772890000    0.000000000000
 0.028368720000    0.077373270000    0.000000000000
 0.023955220000    0.076316800000    0.000000000000
 0.022182360000    0.077906940000    0.000000000000
 0.021808610000    0.073168730000    0.000000000000
 0.021646380000    0.068826540000    0.000000000000
 0.021609810000    0.064600130000    0.000000000000
 0.021626990000    0.060418750000    0.000000000000
 0.021650640000    0.056250000000    0.000000000000
 0.021650640000    0.052083330000    0.000000000000
 0.021650640000    0.047916670000    0.000000000000
 0.021650640000    0.043750000000    0.000000000000
 0.021650640000    0.039583330000    0.000000000000
 0.021650640000    0.035416670000    0.000000000000
 0.021680660000    0.031280870000    0.000000000000
 0.021710930000    0.027456660000    0.000000000000
 0.022952460000    0.024238310000    0.000000000000
 0.021711800000    0.022552150000    0.000000000000
 0.023332410000    0.020809390000    0.000000000000
 0.025896850000    0.021188840000    0.000000000000
 0.029673370000    0.021018710000    0.000000000000
 0.029964830000    0.023538760000    0.000000000000
 0.030048870000    0.025762930000    0.000000000000
 0.030217850000    0.027969850000    0.000000000000
 0.030273110000    0.030115460000    0.000000000000
 0.030291020000    0.032262180000    0.000000000000
 0.030298670000    0.034375000000    0.000000000000
 0.030298670000    0.036458330000    0.000000000000
 0.030298670000    0.038541670000    0.000000000000
 0.030298670000    0.040625000000    0.000000000000
 0.030298670000    0.042708330000    0.000000000000
 0.030298670000    0.044791660000    0.000000000000
 0.030298660000    0.046874990000    0.000000000000
 0.030298660000    0.048958320000    0.000000000000
 0.030298650000    0.051041620000    0.000000000000
 0.030298640000    0.053124920000    0.000000000000
 0.030298570000    0.055208100000    0.000000000000
 0.030298540000    0.057291220000    0.000000000000
 0.030298150000    0.059373930000    0.000000000000
 0.030297950000    0.061455960000    0.000000000000
 0.030295860000    0.063537060000    0.000000000000
 0.030294670000    0.065612580000    0.000000000000
 0.030283500000    0.067691610000    0.000000000000
 0.030276360000    0.069728080000    0.000000000000
 0.030248650000    0.071818760000    0.000000000000
 0.030217050000    0.073604660000    0.000000000000
 0.029622020000    0.075893040000    0.000000000000
 0.029117010000    0.079351020000    0.000000000000
 0.026718000000    0.079230870000    0.000000000000
 0.024196840000    0.078843270000    0.000000000000
 0.020370040000    0.078991950000    0.000000000000
 0.020128420000    0.076465480000    0.000000000000
 0.020046530000    0.074254130000    0.000000000000
 0.019914400000    0.072042390000    0.000000000000
 0.019867550000    0.069882720000    0.000000000000
 0.019837450000    0.067752260000    0.000000000000
 0.019829240000    0.065639710000    0.000000000000
 0.019822770000    0.063543750000    0.000000000000
 0.019822770000    0.061460420000    0.000000000000
 0.019846420000    0.059375000000    0.000000000000
 0.019846420000    0.057291670000    0.000000000000
 0.019846420000    0.055208330000    0.000000000000
 0.019846420000    0.053125000000    0.000000000000
 0.019846420000    0.051041670000    0.000000000000
 0.019846420000    0.048958330000    0.000000000000
 0.019846420000    0.046875000000    0.000000000000
 0.019846420000    0.044791670000    0.000000000000
 0.019846420000    0.042708330000    0.000000000000
 0.019846420000    0.040625000000    0.000000000000
 0.019846420000    0.038541670000    0.000000000000
 0.019846420000    0.036458330000    0.000000000000
 0.019846420000    0.034375000000    0.000000000000
 0.019873540000    0.032284690000    0.000000000000
 0.019903560000    0.030232230000    0.000000000000
 0.020016890000    0.028127770000    0.000000000000
 0.020017140000    0.026356020000    0.000000000000
 0.020470510000    0.023998740000    0.000000000000
 0.020398540000    0.018633860000    0.000000000000
 0.025035510000    0.019206500000    0.000000000000
 0.029712900000    0.019035720000    0.000000000000
 0.031786330000    0.020468480000    0.000000000000
 0.031830840000    0.024675640000    0.000000000000
 0.031970150000    0.029045420000    0.000000000000
 0.032033060000    0.033303850000    0.000000000000
 0.032040710000    0.037500000000    0.000000000000
 0.032040710000    0.041666660000    0.000000000000
 0.032040700000    0.045833320000    0.000000000000
 0.032040690000    0.049999950000    0.000000000000
 0.032040610000    0.054166440000    0.000000000000
 0.032040150000    0.058332340000    0.000000000000
 0.032037670000    0.062496140000    0.000000000000
 0.032024400000    0.066656270000    0.000000000000
 0.031985520000    0.070825980000    0.000000000000
 0.031362770000    0.075205050000    0.000000000000
 0.031069330000    0.079611530000    0.000000000000
 0.029418610000    0.081469120000    0.000000000000
 0.024945140000    0.080821020000    0.000000000000
 0.020299060000    0.080973960000    0.000000000000
 0.018245120000    0.079532500000    0.000000000000
 0.018234210000    0.075339140000    0.000000000000
 0.018105470000    0.070968120000    0.000000000000
 0.018050410000    0.066695890000    0.000000000000
 0.018042200000    0.062500000000    0.000000000000
 0.018042200000    0.058333330000    0.000000000000
 0.018042200000    0.054166670000    0.000000000000
 0.018042200000    0.050000000000    0.000000000000
 0.018042200000    0.045833330000    0.000000000000
 0.018042200000    0.041666670000    0.000000000000
 0.018042200000    0.037500000000    0.000000000000
 0.018069320000    0.033326360000    0.000000000000
 0.018209770000    0.029131590000    0.000000000000
 0.018776480000    0.024669850000    0.000000000000
 0.018777930000    0.020376620000    0.000000000000
 0.019375200000    0.016630940000    0.000000000000
 0.021447740000    0.016824130000    0.000000000000
 0.023761790000    0.016918630000    0.000000000000
 0.026326220000    0.017298080000    0.000000000000
 0.028653510000    0.017308500000    0.000000000000
 0.030766470000    0.016758260000    0.000000000000
 0.033244480000    0.017031660000    0.000000000000
 0.033559560000    0.019454070000    0.000000000000
 0.033520030000    0.021437070000    0.000000000000
 0.033606930000    0.023628000000    0.000000000000
 0.033690970000    0.025852170000    0.000000000000
 0.033734060000    0.028011480000    0.000000000000
 0.033789320000    0.030157090000    0.000000000000
 0.033795830000    0.032262180000    0.000000000000
 0.033803480000    0.034375000000    0.000000000000
 0.033803480000    0.036458330000    0.000000000000
 0.033803480000    0.038541670000    0.000000000000
 0.033803480000    0.040625000000    0.000000000000
 0.033803470000    0.042708330000    0.000000000000
 0.033803470000    0.044791670000    0.000000000000
 0.033803470000    0.046874990000    0.000000000000
 0.033803470000    0.048958330000    0.000000000000
 0.033803460000    0.051041630000    0.000000000000
 0.033803460000    0.053124960000    0.000000000000
 0.033803390000    0.055208150000    0.000000000000
 0.033803390000    0.057291480000    0.000000000000
 0.033803000000    0.059374190000    0.000000000000
 0.033803000000    0.061457520000    0.000000000000
 0.033800910000    0.063538620000    0.000000000000
 0.033800910000    0.065621950000    0.000000000000
 0.033789740000    0.067700980000    0.000000000000
 0.033758750000    0.069805800000    0.000000000000
 0.033731030000    0.071896490000    0.000000000000
 0.033591690000    0.074071870000    0.000000000000
 0.032996660000    0.076360250000    0.000000000000
 0.032866560000    0.078592240000    0.000000000000
 0.033168160000    0.080710350000    0.000000000000
 0.032845680000    0.083204760000    0.000000000000
 0.030387820000    0.083494780000    0.000000000000
 0.028435500000    0.083234270000    0.000000000000
 0.026170950000    0.083109660000    0.000000000000
 0.023649800000    0.082722060000    0.000000000000
 0.021349800000    0.082687630000    0.000000000000
 0.019224880000    0.083228180000    0.000000000000
 0.016755520000    0.082968340000    0.000000000000
 0.016440670000    0.080545930000    0.000000000000
 0.016511660000    0.078563920000    0.000000000000
 0.016446150000    0.076394660000    0.000000000000
 0.016364260000    0.074183310000    0.000000000000
 0.016314920000    0.072024500000    0.000000000000
 0.016268070000    0.069864830000    0.000000000000
 0.016246190000    0.067737560000    0.000000000000
 0.016237980000    0.065625000000    0.000000000000
 0.016237980000    0.063541670000    0.000000000000
 0.016237980000    0.061458330000    0.000000000000
 0.016237980000    0.059375000000    0.000000000000
 0.016237980000    0.057291670000    0.000000000000
 0.016237980000    0.055208330000    0.000000000000
 0.016237980000    0.053125000000    0.000000000000
 0.016237980000    0.051041670000    0.000000000000
 0.016237980000    0.048958330000    0.000000000000
 0.016237980000    0.046875000000    0.000000000000
 0.016237980000    0.044791670000    0.000000000000
 0.016237980000    0.042708330000    0.000000000000
 0.016237980000    0.040625000000    0.000000000000
 0.016237980000    0.038541670000    0.000000000000
 0.016237980000    0.036458330000    0.000000000000
 0.016237980000    0.034375000000    0.000000000000
 0.016265100000    0.032284690000    0.000000000000
 0.016328830000    0.030174240000    0.000000000000
 0.016442160000    0.028069780000    0.000000000000
 0.016574210000    0.025899720000    0.000000000000
 0.017027590000    0.023542440000    0.000000000000
 0.017069190000    0.021367110000    0.000000000000
 0.016617270000    0.019431150000    0.000000000000
 0.016847350000    0.016998720000    0.000000000000
 0.017896550000    0.015188990000    0.000000000000
 0.022738450000    0.014915710000    0.000000000000
 0.027379790000    0.015020630000    0.000000000000
 0.032185100000    0.015304440000    0.000000000000
 0.034978180000    0.018000240000    0.000000000000
 0.035380160000    0.022613590000    0.000000000000
 0.035510150000    0.026963840000    0.000000000000
 0.035559740000    0.031228250000    0.000000000000
 0.035566240000    0.035416670000    0.000000000000
 0.035566240000    0.039583330000    0.000000000000
 0.035566240000    0.043750000000    0.000000000000
 0.035566240000    0.047916670000    0.000000000000
 0.035566240000    0.052083330000    0.000000000000
 0.035566240000    0.056250000000    0.000000000000
 0.035566240000    0.060416670000    0.000000000000
 0.035566240000    0.064583330000    0.000000000000
 0.035535250000    0.068771490000    0.000000000000
 0.035364920000    0.073051700000    0.000000000000
 0.035095490000    0.077459070000    0.000000000000
 0.034642910000    0.082185480000    0.000000000000
 0.031862570000    0.084969910000    0.000000000000
 0.027140160000    0.085135320000    0.000000000000
 0.022575620000    0.084976280000    0.000000000000
 0.017806260000    0.084682010000    0.000000000000
 0.015022050000    0.081999760000    0.000000000000
 0.014641700000    0.077408090000    0.000000000000
 0.014526850000    0.073080020000    0.000000000000
 0.014455630000    0.068793930000    0.000000000000
 0.014433760000    0.064583330000    0.000000000000
 0.014433760000    0.060416670000    0.000000000000
 0.014433760000    0.056250000000    0.000000000000
 0.014433760000    0.052083330000    0.000000000000
 0.014433760000    0.047916670000    0.000000000000
 0.014433760000    0.043750000000    0.000000000000
 0.014433760000    0.039583330000    0.000000000000
 0.014433760000    0.035416670000    0.000000000000
 0.014497480000    0.031222880000    0.000000000000
 0.014693270000    0.026942360000    0.000000000000
 0.014866930000    0.022596970000    0.000000000000
 0.015138620000    0.017989200000    0.000000000000
 0.014645810000    0.013373970000    0.000000000000
 0.016827520000    0.013386080000    0.000000000000
 0.019355370000    0.013018300000    0.000000000000
 0.021609480000    0.012982890000    0.000000000000
 0.023923530000    0.013077390000    0.000000000000
 0.026167950000    0.013111550000    0.000000000000
 0.028495240000    0.013121970000    0.000000000000
 0.030736030000    0.013156200000    0.000000000000
 0.033214040000    0.013429590000    0.000000000000
 0.035331460000    0.013366060000    0.000000000000
 0.037547950000    0.012671260000    0.000000000000
 0.036879590000    0.014883030000    0.000000000000
 0.036799130000    0.016975970000    0.000000000000
 0.037114210000    0.019398380000    0.000000000000
 0.037174640000    0.021572670000    0.000000000000
 0.037261540000    0.023763600000    0.000000000000
 0.037304310000    0.025912850000    0.000000000000
 0.037347390000    0.028072160000    0.000000000000
 0.037363960000    0.030186580000    0.000000000000
 0.037370460000    0.032291670000    0.000000000000
 0.037370460000    0.034375000000    0.000000000000
 0.037370460000    0.036458330000    0.000000000000
 0.037370460000    0.038541670000    0.000000000000
 0.037370460000    0.040625000000    0.000000000000
 0.037370460000    0.042708330000    0.000000000000
 0.037370460000    0.044791670000    0.000000000000
 0.037370460000    0.046875000000    0.000000000000
 0.037370460000    0.048958330000    0.000000000000
 0.037370460000    0.051041670000    0.000000000000
 0.037370460000    0.053125000000    0.000000000000
 0.037370460000    0.055208330000    0.000000000000
 0.037370460000    0.057291670000    0.000000000000
 0.037370460000    0.059375000000    0.000000000000
 0.037370460000    0.061458330000    0.000000000000
 0.037370460000    0.063541670000    0.000000000000
 0.037370460000    0.065625000000    0.000000000000
 0.037352050000    0.067722730000    0.000000000000
 0.037321060000    0.069827550000    0.000000000000
 0.037278630000    0.071944920000    0.000000000000
 0.037139290000    0.074120310000    0.000000000000
 0.037049480000    0.076295200000    0.000000000000
 0.036919390000    0.078527190000    0.000000000000
 0.036838610000    0.080732800000    0.000000000000
 0.036516130000    0.083227210000    0.000000000000
 0.036583070000    0.085339860000    0.000000000000
 0.037325590000    0.087549520000    0.000000000000
 0.035062950000    0.086889560000    0.000000000000
 0.032938020000    0.086794910000    0.000000000000
 0.030480160000    0.087084920000    0.000000000000
 0.028253480000    0.087111150000    0.000000000000
 0.025988930000    0.086986540000    0.000000000000
 0.023773030000    0.086919970000    0.000000000000
 0.021473030000    0.086885530000    0.000000000000
 0.019250230000    0.086833140000    0.000000000000
 0.016780870000    0.086573300000    0.000000000000
 0.014668540000    0.086633940000    0.000000000000
 0.012452050000    0.087328740000    0.000000000000
 0.013120410000    0.085116970000    0.000000000000
 0.013200910000    0.083024030000    0.000000000000
 0.012886070000    0.080601620000    0.000000000000
 0.012825940000    0.078427330000    0.000000000000
 0.012760440000    0.076258080000    0.000000000000
 0.012717750000    0.074108830000    0.000000000000
 0.012668410000    0.071950010000    0.000000000000
 0.012651410000    0.069835600000    0.000000000000
 0.012629540000    0.067708330000    0.000000000000
 0.012629540000    0.065625000000    0.000000000000
 0.012629540000    0.063541670000    0.000000000000
 0.012629540000    0.061458330000    0.000000000000
 0.012629540000    0.059375000000    0.000000000000
 0.012629540000    0.057291670000    0.000000000000
 0.012629540000    0.055208330000    0.000000000000
 0.012629540000    0.053125000000    0.000000000000
 0.012629540000    0.051041670000    0.000000000000
 0.012629540000    0.048958330000    0.000000000000
 0.012629540000    0.046875000000    0.000000000000
 0.012629540000    0.044791670000    0.000000000000
 0.012629540000    0.042708330000    0.000000000000
 0.012629540000    0.040625000000    0.000000000000
 0.012629540000    0.038541670000    0.000000000000
 0.012629540000    0.036458330000    0.000000000000
 0.012629540000    0.034375000000    0.000000000000
 0.012651490000    0.032279270000    0.000000000000
 0.012715220000    0.030168820000    0.000000000000
 0.012761260000    0.028050630000    0.000000000000
 0.012893320000    0.025880570000    0.000000000000
 0.012942680000    0.023734020000    0.000000000000
 0.012984280000    0.021558690000    0.000000000000
 0.013012450000    0.019379830000    0.000000000000
 0.013242540000    0.016947390000    0.000000000000
 0.013121720000    0.014815700000    0.000000000000
 0.012398830000    0.012632900000    0.000000000000
 0.012155460000    0.010864280000    0.000000000000
 0.016104620000    0.011203280000    0.000000000000
 0.020540440000    0.011179980000    0.000000000000
 0.025038970000    0.011178730000    0.000000000000
 0.029524190000    0.011247120000    0.000000000000
 0.033882400000    0.011217820000    0.000000000000
 0.037788260000    0.010866100000    0.000000000000
 0.039336390000    0.012383070000    0.000000000000
 0.039015610000    0.016281170000    0.000000000000
 0.038995590000    0.020548390000    0.000000000000
 0.039098790000    0.024871930000    0.000000000000
 0.039158120000    0.029135590000    0.000000000000
 0.039174680000    0.033333330000    0.000000000000
 0.039174680000    0.037500000000    0.000000000000
 0.039174680000    0.041666670000    0.000000000000
 0.039174680000    0.045833330000    0.000000000000
 0.039174680000    0.050000000000    0.000000000000
 0.039174680000    0.054166670000    0.000000000000
 0.039174680000    0.058333330000    0.000000000000
 0.039174680000    0.062500000000    0.000000000000
 0.039156270000    0.066681060000    0.000000000000
 0.039095420000    0.070896160000    0.000000000000
 0.038963190000    0.075188430000    0.000000000000
 0.038792610000    0.079568920000    0.000000000000
 0.038778770000    0.083887180000    0.000000000000
 0.039133270000    0.087788570000    0.000000000000
 0.037613150000    0.089338270000    0.000000000000
 0.033680540000    0.089004570000    0.000000000000
 0.029328930000    0.088936150000    0.000000000000
 0.024886350000    0.088895800000    0.000000000000
 0.020447640000    0.088776830000    0.000000000000
 0.016112510000    0.088785070000    0.000000000000
 0.012211740000    0.089133900000    0.000000000000
 0.010663610000    0.087616930000    0.000000000000
 0.010984420000    0.083718830000    0.000000000000
 0.011004810000    0.079451610000    0.000000000000
 0.010902000000    0.075128070000    0.000000000000
 0.010842310000    0.070864410000    0.000000000000
 0.010825320000    0.066666670000    0.000000000000
 0.010825320000    0.062500000000    0.000000000000
 0.010825320000    0.058333330000    0.000000000000
 0.010825320000    0.054166670000    0.000000000000
 0.010825320000    0.050000000000    0.000000000000
 0.010825320000    0.045833330000    0.000000000000
 0.010825320000    0.041666670000    0.000000000000
 0.010825320000    0.037500000000    0.000000000000
 0.010847270000    0.033320940000    0.000000000000
 0.010915270000    0.029107020000    0.000000000000
 0.011010670000    0.024842290000    0.000000000000
 0.011088200000    0.020516880000    0.000000000000
 0.010995560000    0.016206320000    0.000000000000
 0.010631370000    0.012306010000    0.000000000000
 0.011297140000    0.008935678000    0.000000000000
 0.013064600000    0.009262565000    0.000000000000
 0.015152010000    0.009295511000    0.000000000000
 0.017333720000    0.009307623000    0.000000000000
 0.019480220000    0.009315772000    0.000000000000
 0.021734330000    0.009280360000    0.000000000000
 0.023910040000    0.009271107000    0.000000000000
 0.026154460000    0.009305268000    0.000000000000
 0.028319560000    0.009312699000    0.000000000000
 0.030560350000    0.009346931000    0.000000000000
 0.032688100000    0.009344570000    0.000000000000
 0.034805520000    0.009281039000    0.000000000000
 0.036900930000    0.009265223000    0.000000000000
 0.038689360000    0.008977029000    0.000000000000
 0.040988170000    0.009152600000    0.000000000000
 0.041166750000    0.011459680000    0.000000000000
 0.040926450000    0.013264840000    0.000000000000
 0.040909910000    0.015345890000    0.000000000000
 0.040829440000    0.017438820000    0.000000000000
 0.040825560000    0.019543850000    0.000000000000
 0.040885990000    0.021718140000    0.000000000000
 0.040919570000    0.023861340000    0.000000000000
 0.040962340000    0.026010590000    0.000000000000
 0.040962340000    0.028093920000    0.000000000000
 0.040978900000    0.030208330000    0.000000000000
 0.040978900000    0.032291670000    0.000000000000
 0.040978900000    0.034375000000    0.000000000000
 0.040978900000    0.036458330000    0.000000000000
 0.040978900000    0.038541670000    0.000000000000
 0.040978900000    0.040625000000    0.000000000000
 0.040978900000    0.042708330000    0.000000000000
 0.040978900000    0.044791670000    0.000000000000
 0.040978900000    0.046875000000    0.000000000000
 0.040978900000    0.048958330000    0.000000000000
 0.040978900000    0.051041670000    0.000000000000
 0.040978900000    0.053125000000    0.000000000000
 0.040978900000    0.055208330000    0.000000000000
 0.040978900000    0.057291670000    0.000000000000
 0.040978900000    0.059375000000    0.000000000000
 0.040978900000    0.061458330000    0.000000000000
 0.040978900000    0.063541670000    0.000000000000
 0.040978900000    0.065625000000    0.000000000000
 0.040960490000    0.067722730000    0.000000000000
 0.040941850000    0.069822490000    0.000000000000
 0.040899420000    0.071939870000    0.000000000000
 0.040867080000    0.074056930000    0.000000000000
 0.040777280000    0.076231830000    0.000000000000
 0.040738360000    0.078368350000    0.000000000000
 0.040657590000    0.080573960000    0.000000000000
 0.040652000000    0.082692890000    0.000000000000
 0.040718930000    0.084805540000    0.000000000000
 0.040734640000    0.086901000000    0.000000000000
 0.041022200000    0.088689750000    0.000000000000
 0.040846580000    0.090988580000    0.000000000000
 0.038538970000    0.091167430000    0.000000000000
 0.036731290000    0.090928380000    0.000000000000
 0.034645940000    0.090910370000    0.000000000000
 0.032521010000    0.090815720000    0.000000000000
 0.030398490000    0.090789610000    0.000000000000
 0.028171810000    0.090815840000    0.000000000000
 0.026015940000    0.090810350000    0.000000000000
 0.023800030000    0.090743770000    0.000000000000
 0.021650070000    0.090717700000    0.000000000000
 0.019427260000    0.090665300000    0.000000000000
 0.017306810000    0.090658320000    0.000000000000
 0.015194480000    0.090718960000    0.000000000000
 0.013099070000    0.090734780000    0.000000000000
 0.011310640000    0.091022970000    0.000000000000
 0.009011826000    0.090847400000    0.000000000000
 0.008833246000    0.088540320000    0.000000000000
 0.009073553000    0.086735160000    0.000000000000
 0.009090091000    0.084654110000    0.000000000000
 0.009170594000    0.082561180000    0.000000000000
 0.009174486000    0.080456150000    0.000000000000
 0.009114364000    0.078281860000    0.000000000000
 0.009080781000    0.076138660000    0.000000000000
 0.009038094000    0.073989410000    0.000000000000
 0.009038094000    0.071906080000    0.000000000000
 0.009021098000    0.069791670000    0.000000000000
 0.009021098000    0.067708330000    0.000000000000
 0.009021098000    0.065625000000    0.000000000000
 0.009021098000    0.063541670000    0.000000000000
 0.009021098000    0.061458330000    0.000000000000
 0.009021098000    0.059375000000    0.000000000000
 0.009021098000    0.057291670000    0.000000000000
 0.009021098000    0.055208330000    0.000000000000
 0.009021098000    0.053125000000    0.000000000000
 0.009021098000    0.051041670000    0.000000000000
 0.009021098000    0.048958330000    0.000000000000
 0.009021098000    0.046875000000    0.000000000000
 0.009021098000    0.044791670000    0.000000000000
 0.009021098000    0.042708330000    0.000000000000
 0.009021098000    0.040625000000    0.000000000000
 0.009021098000    0.038541670000    0.000000000000
 0.009021098000    0.036458330000    0.000000000000
 0.009021098000    0.034375000000    0.000000000000
 0.009043052000    0.032279270000    0.000000000000
 0.009043052000    0.030195940000    0.000000000000
 0.009089093000    0.028077750000    0.000000000000
 0.009120194000    0.025962360000    0.000000000000
 0.009169557000    0.023815810000    0.000000000000
 0.009185754000    0.021692160000    0.000000000000
 0.009213923000    0.019513300000    0.000000000000
 0.009203211000    0.017388850000    0.000000000000
 0.009082395000    0.015257160000    0.000000000000
 0.009053984000    0.013172530000    0.000000000000
 0.008810614000    0.011403920000    0.000000000000
 0.009006033000    0.009101823000    0.000000000000
 0.009915179000    0.007500108000    0.000000000000
 0.014293690000    0.007366909000    0.000000000000
 0.018527610000    0.007408004000    0.000000000000
 0.022849820000    0.007406900000    0.000000000000
 0.027190630000    0.007405078000    0.000000000000
 0.031483480000    0.007410149000    0.000000000000
 0.035706630000    0.007391972000    0.000000000000
 0.040100840000    0.007551726000    0.000000000000
 0.042578240000    0.010034380000    0.000000000000
 0.042740280000    0.014422500000    0.000000000000
 0.042719850000    0.018608570000    0.000000000000
 0.042749540000    0.022856800000    0.000000000000
 0.042783120000    0.027083330000    0.000000000000
 0.042783120000    0.031250000000    0.000000000000
 0.042783120000    0.035416670000    0.000000000000
 0.042783120000    0.039583330000    0.000000000000
 0.042783120000    0.043750000000    0.000000000000
 0.042783120000    0.047916670000    0.000000000000
 0.042783120000    0.052083330000    0.000000000000
 0.042783120000    0.056250000000    0.000000000000
 0.042783120000    0.060416670000    0.000000000000
 0.042783120000    0.064583330000    0.000000000000
 0.042764480000    0.068766430000    0.000000000000
 0.042713510000    0.072983270000    0.000000000000
 0.042642260000    0.077236860000    0.000000000000
 0.042597750000    0.081492320000    0.000000000000
 0.042607860000    0.085706710000    0.000000000000
 0.042447940000    0.090101010000    0.000000000000
 0.039964710000    0.092578690000    0.000000000000
 0.035571760000    0.092739520000    0.000000000000
 0.031363890000    0.092695410000    0.000000000000
 0.027085490000    0.092663810000    0.000000000000
 0.022779650000    0.092632240000    0.000000000000
 0.018509230000    0.092599190000    0.000000000000
 0.014293370000    0.092608030000    0.000000000000
 0.009899156000    0.092448270000    0.000000000000
 0.007421765000    0.089965620000    0.000000000000
 0.007259723000    0.085577500000    0.000000000000
 0.007280153000    0.081391430000    0.000000000000
 0.007250462000    0.077143200000    0.000000000000
 0.007216878000    0.072916670000    0.000000000000
 0.007216878000    0.068750000000    0.000000000000
 0.007216878000    0.064583330000    0.000000000000
 0.007216878000    0.060416670000    0.000000000000
 0.007216878000    0.056250000000    0.000000000000
 0.007216878000    0.052083330000    0.000000000000
 0.007216878000    0.047916670000    0.000000000000
 0.007216878000    0.043750000000    0.000000000000
 0.007216878000    0.039583330000    0.000000000000
 0.007216878000    0.035416670000    0.000000000000
 0.007216878000    0.031250000000    0.000000000000
 0.007247979000    0.027051280000    0.000000000000
 0.007295277000    0.022812230000    0.000000000000
 0.007300762000    0.018564130000    0.000000000000
 0.007261640000    0.014355060000    0.000000000000
 0.007428649000    0.009968345000    0.000000000000
 0.008943080000    0.005655033000    0.000000000000
 0.011234190000    0.005488888000    0.000000000000
 0.013336240000    0.005498362000    0.000000000000
 0.015423650000    0.005531309000    0.000000000000
 0.017519450000    0.005539631000    0.000000000000
 0.019665950000    0.005547780000    0.000000000000
 0.021786730000    0.005538103000    0.000000000000
 0.023962440000    0.005528850000    0.000000000000
 0.026077100000    0.005526979000    0.000000000000
 0.028242200000    0.005534411000    0.000000000000
 0.030340620000    0.005537647000    0.000000000000
 0.032468370000    0.005535286000    0.000000000000
 0.034575490000    0.005547958000    0.000000000000
 0.036670900000    0.005532142000    0.000000000000
 0.038803050000    0.005576633000    0.000000000000
 0.041101870000    0.005752203000    0.000000000000
 0.043159320000    0.005579413000    0.000000000000
 0.044524150000    0.006933022000    0.000000000000
 0.044382150000    0.008995212000    0.000000000000
 0.044560730000    0.011302290000    0.000000000000
 0.044563350000    0.013419010000    0.000000000000
 0.044546810000    0.015500050000    0.000000000000
 0.044548930000    0.017604090000    0.000000000000
 0.044545040000    0.019709120000    0.000000000000
 0.044553760000    0.021815140000    0.000000000000
 0.044587340000    0.023958330000    0.000000000000
 0.044587340000    0.026041670000    0.000000000000
 0.044587340000    0.028125000000    0.000000000000
 0.044587340000    0.030208330000    0.000000000000
 0.044587340000    0.032291670000    0.000000000000
 0.044587340000    0.034375000000    0.000000000000
 0.044587340000    0.036458330000    0.000000000000
 0.044587340000    0.038541670000    0.000000000000
 0.044587340000    0.040625000000    0.000000000000
 0.044587340000    0.042708330000    0.000000000000
 0.044587340000    0.044791670000    0.000000000000
 0.044587340000    0.046875000000    0.000000000000
 0.044587340000    0.048958330000    0.000000000000
 0.044587340000    0.051041670000    0.000000000000
 0.044587340000    0.053125000000    0.000000000000
 0.044587340000    0.055208330000    0.000000000000
 0.044587340000    0.057291670000    0.000000000000
 0.044587340000    0.059375000000    0.000000000000
 0.044587340000    0.061458330000    0.000000000000
 0.044587340000    0.063541670000    0.000000000000
 0.044587340000    0.065625000000    0.000000000000
 0.044587340000    0.067708330000    0.000000000000
 0.044568700000    0.069808100000    0.000000000000
 0.044568700000    0.071891430000    0.000000000000
 0.044536370000    0.074008500000    0.000000000000
 0.044514870000    0.076117450000    0.000000000000
 0.044475960000    0.078253970000    0.000000000000
 0.044470280000    0.080349450000    0.000000000000
 0.044464680000    0.082468380000    0.000000000000
 0.044451990000    0.084575520000    0.000000000000
 0.044467700000    0.086670980000    0.000000000000
 0.044423230000    0.088803120000    0.000000000000
 0.044247600000    0.091101960000    0.000000000000
 0.044420390000    0.093159420000    0.000000000000
 0.043066750000    0.094524260000    0.000000000000
 0.041004400000    0.094382340000    0.000000000000
 0.038696800000    0.094561190000    0.000000000000
 0.036559380000    0.094570260000    0.000000000000
 0.034474030000    0.094552250000    0.000000000000
 0.032388690000    0.094546810000    0.000000000000
 0.030266170000    0.094520700000    0.000000000000
 0.028162350000    0.094530430000    0.000000000000
 0.026006480000    0.094524940000    0.000000000000
 0.023898080000    0.094504180000    0.000000000000
 0.021748110000    0.094478100000    0.000000000000
 0.019652090000    0.094471690000    0.000000000000
 0.017531630000    0.094464710000    0.000000000000
 0.015424510000    0.094452040000    0.000000000000
 0.013329100000    0.094467860000    0.000000000000
 0.011196950000    0.094423370000    0.000000000000
 0.008898134000    0.094247800000    0.000000000000
 0.006840676000    0.094420590000    0.000000000000
 0.005475850000    0.093066980000    0.000000000000
 0.005617849000    0.091004790000    0.000000000000
 0.005439268000    0.088697710000    0.000000000000
 0.005436649000    0.086580990000    0.000000000000
 0.005453188000    0.084499950000    0.000000000000
 0.005451075000    0.082395910000    0.000000000000
 0.005454967000    0.080290880000    0.000000000000
 0.005446242000    0.078184860000    0.000000000000
 0.005412659000    0.076041670000    0.000000000000
 0.005412659000    0.073958330000    0.000000000000
 0.005412659000    0.071875000000    0.000000000000
 0.005412659000    0.069791670000    0.000000000000
 0.005412659000    0.067708330000    0.000000000000
 0.005412659000    0.065625000000    0.000000000000
 0.005412659000    0.063541670000    0.000000000000
 0.005412659000    0.061458330000    0.000000000000
 0.005412659000    0.059375000000    0.000000000000
 0.005412659000    0.057291670000    0.000000000000
 0.005412659000    0.055208330000    0.000000000000
 0.005412659000    0.053125000000    0.000000000000
 0.005412659000    0.051041670000    0.000000000000
 0.005412659000    0.048958330000    0.000000000000
 0.005412659000    0.046875000000    0.000000000000
 0.005412659000    0.044791670000    0.000000000000
 0.005412659000    0.042708330000    0.000000000000
 0.005412659000    0.040625000000    0.000000000000
 0.005412659000    0.038541670000    0.000000000000
 0.005412659000    0.036458330000    0.000000000000
 0.005412659000    0.034375000000    0.000000000000
 0.005412659000    0.032291670000    0.000000000000
 0.005412659000    0.030208330000    0.000000000000
 0.005412659000    0.028125000000    0.000000000000
 0.005443760000    0.026009610000    0.000000000000
 0.005443760000    0.023926280000    0.000000000000
 0.005459957000    0.021802630000    0.000000000000
 0.005469372000    0.019691830000    0.000000000000
 0.005458660000    0.017567380000    0.000000000000
 0.005454400000    0.015480220000    0.000000000000
 0.005425989000    0.013395600000    0.000000000000
 0.005436689000    0.011251260000    0.000000000000
 0.005632109000    0.008949169000    0.000000000000
 0.005494459000    0.006883997000    0.000000000000
 0.006866668000    0.005510223000    0.000000000000
 0.008185680000    0.003499003000    0.000000000000
 0.012364140000    0.003653288000    0.000000000000
 0.016561990000    0.003671084000    0.000000000000
 0.020778570000    0.003669729000    0.000000000000
 0.025014010000    0.003658182000    0.000000000000
 0.029227090000    0.003659548000    0.000000000000
 0.033432640000    0.003675456000    0.000000000000
 0.037671920000    0.003732619000    0.000000000000
 0.041861540000    0.003604319000    0.000000000000
 0.045283820000    0.004785138000    0.000000000000
 0.046506650000    0.008200938000    0.000000000000
 0.046367270000    0.012379850000    0.000000000000
 0.046372000000    0.016600600000    0.000000000000
 0.046382840000    0.020810650000    0.000000000000
 0.046391560000    0.025000000000    0.000000000000
 0.046391560000    0.029166670000    0.000000000000
 0.046391560000    0.033333330000    0.000000000000
 0.046391560000    0.037500000000    0.000000000000
 0.046391560000    0.041666670000    0.000000000000
 0.046391560000    0.045833330000    0.000000000000
 0.046391560000    0.050000000000    0.000000000000
 0.046391560000    0.054166670000    0.000000000000
 0.046391560000    0.058333330000    0.000000000000
 0.046391560000    0.062500000000    0.000000000000
 0.046391560000    0.066666670000    0.000000000000
 0.046391560000    0.070833330000    0.000000000000
 0.046370070000    0.075025610000    0.000000000000
 0.046342890000    0.079230040000    0.000000000000
 0.046324520000    0.083432650000    0.000000000000
 0.046267360000    0.087671930000    0.000000000000
 0.046395680000    0.091861540000    0.000000000000
 0.045214830000    0.095283840000    0.000000000000
 0.041798840000    0.096506760000    0.000000000000
 0.037599070000    0.096373910000    0.000000000000
 0.033376310000    0.096377540000    0.000000000000
 0.029187150000    0.096381830000    0.000000000000
 0.024974940000    0.096370800000    0.000000000000
 0.020770510000    0.096343630000    0.000000000000
 0.016567360000    0.096324540000    0.000000000000
 0.012328080000    0.096267380000    0.000000000000
 0.008138465000    0.096395680000    0.000000000000
 0.004716181000    0.095214860000    0.000000000000
 0.003493353000    0.091799060000    0.000000000000
 0.003632733000    0.087620150000    0.000000000000
 0.003628002000    0.083399400000    0.000000000000
 0.003617164000    0.079189350000    0.000000000000
 0.003608439000    0.075000000000    0.000000000000
 0.003608439000    0.070833330000    0.000000000000
 0.003608439000    0.066666670000    0.000000000000
 0.003608439000    0.062500000000    0.000000000000
 0.003608439000    0.058333330000    0.000000000000
 0.003608439000    0.054166670000    0.000000000000
 0.003608439000    0.050000000000    0.000000000000
 0.003608439000    0.045833330000    0.000000000000
 0.003608439000    0.041666670000    0.000000000000
 0.003608439000    0.037500000000    0.000000000000
 0.003608439000    0.033333330000    0.000000000000
 0.003608439000    0.029166670000    0.000000000000
 0.003608439000    0.025000000000    0.000000000000
 0.003617854000    0.020805870000    0.000000000000
 0.003623009000    0.016607910000    0.000000000000
 0.003629449000    0.012376420000    0.000000000000
 0.003502499000    0.008166914000    0.000000000000
 0.004737058000    0.004727967000    0.000000000000
 0.005137967000    0.001677097000    0.000000000000
 0.007221301000    0.001677097000    0.000000000000
 0.009297712000    0.001821907000    0.000000000000
 0.011381050000    0.001821907000    0.000000000000
 0.013483100000    0.001831381000    0.000000000000
 0.015566430000    0.001831381000    0.000000000000
 0.017662230000    0.001839703000    0.000000000000
 0.019745560000    0.001839703000    0.000000000000
 0.021866340000    0.001830026000    0.000000000000
 0.023949680000    0.001830026000    0.000000000000
 0.026064330000    0.001828156000    0.000000000000
 0.028147670000    0.001828156000    0.000000000000
 0.030246090000    0.001831392000    0.000000000000
 0.032329420000    0.001831392000    0.000000000000
 0.034436550000    0.001844064000    0.000000000000
 0.036519880000    0.001844064000    0.000000000000
 0.038652040000    0.001888555000    0.000000000000
 0.040735370000    0.001888555000    0.000000000000
 0.042792830000    0.001715764000    0.000000000000
 0.044876160000    0.001715764000    0.000000000000
 0.048324320000    0.005152707000    0.000000000000
 0.048324320000    0.007236041000    0.000000000000
 0.048182320000    0.009298230000    0.000000000000
 0.048182320000    0.011381560000    0.000000000000
 0.048184940000    0.013498290000    0.000000000000
 0.048184940000    0.015581620000    0.000000000000
 0.048187060000    0.017685650000    0.000000000000
 0.048187060000    0.019768980000    0.000000000000
 0.048195780000    0.021875000000    0.000000000000
 0.048195780000    0.023958330000    0.000000000000
 0.048195780000    0.026041670000    0.000000000000
 0.048195780000    0.028125000000    0.000000000000
 0.048195780000    0.030208330000    0.000000000000
 0.048195780000    0.032291670000    0.000000000000
 0.048195780000    0.034375000000    0.000000000000
 0.048195780000    0.036458330000    0.000000000000
 0.048195780000    0.038541670000    0.000000000000
 0.048195780000    0.040625000000    0.000000000000
 0.048195780000    0.042708330000    0.000000000000
 0.048195780000    0.044791670000    0.000000000000
 0.048195780000    0.046875000000    0.000000000000
 0.048195780000    0.048958330000    0.000000000000
 0.048195780000    0.051041670000    0.000000000000
 0.048195780000    0.053125000000    0.000000000000
 0.048195780000    0.055208330000    0.000000000000
 0.048195780000    0.057291670000    0.000000000000
 0.048195780000    0.059375000000    0.000000000000
 0.048195780000    0.061458330000    0.000000000000
 0.048195780000    0.063541670000    0.000000000000
 0.048195780000    0.065625000000    0.000000000000
 0.048195780000    0.067708330000    0.000000000000
 0.048195780000    0.069791670000    0.000000000000
 0.048195780000    0.071875000000    0.000000000000
 0.048195780000    0.073958330000    0.000000000000
 0.048174290000    0.076067280000    0.000000000000
 0.048174290000    0.078150610000    0.000000000000
 0.048168600000    0.080246090000    0.000000000000
 0.048168600000    0.082329430000    0.000000000000
 0.048155910000    0.084436560000    0.000000000000
 0.048155910000    0.086519890000    0.000000000000
 0.048111450000    0.088652040000    0.000000000000
 0.048111450000    0.090735370000    0.000000000000
 0.048284240000    0.092792830000    0.000000000000
 0.048284240000    0.094876160000    0.000000000000
 0.044847260000    0.098324340000    0.000000000000
 0.042763930000    0.098324340000    0.000000000000
 0.040701580000    0.098182420000    0.000000000000
 0.038618240000    0.098182420000    0.000000000000
 0.036480830000    0.098191490000    0.000000000000
 0.034397490000    0.098191490000    0.000000000000
 0.032312150000    0.098186050000    0.000000000000
 0.030228820000    0.098186050000    0.000000000000
 0.028125000000    0.098195780000    0.000000000000
 0.026041670000    0.098195780000    0.000000000000
 0.023933270000    0.098175020000    0.000000000000
 0.021849940000    0.098175020000    0.000000000000
 0.019753910000    0.098168610000    0.000000000000
 0.017670580000    0.098168610000    0.000000000000
 0.015563450000    0.098155940000    0.000000000000
 0.013480120000    0.098155940000    0.000000000000
 0.011347960000    0.098111450000    0.000000000000
 0.009264628000    0.098111450000    0.000000000000
 0.007207170000    0.098284240000    0.000000000000
 0.005123837000    0.098284240000    0.000000000000
 0.001675677000    0.094847290000    0.000000000000
 0.001675677000    0.092763960000    0.000000000000
 0.001817676000    0.090701770000    0.000000000000
 0.001817676000    0.088618440000    0.000000000000
 0.001815057000    0.086501710000    0.000000000000
 0.001815057000    0.084418380000    0.000000000000
 0.001812944000    0.082314350000    0.000000000000
 0.001812944000    0.080231020000    0.000000000000
 0.001804220000    0.078125000000    0.000000000000
 0.001804220000    0.076041670000    0.000000000000
 0.001804220000    0.073958330000    0.000000000000
 0.001804220000    0.071875000000    0.000000000000
 0.001804220000    0.069791670000    0.000000000000
 0.001804220000    0.067708330000    0.000000000000
 0.001804220000    0.065625000000    0.000000000000
 0.001804220000    0.063541670000    0.000000000000
 0.001804220000    0.061458330000    0.000000000000
 0.001804220000    0.059375000000    0.000000000000
 0.001804220000    0.057291670000    0.000000000000
 0.001804220000    0.055208330000    0.000000000000
 0.001804220000    0.053125000000    0.000000000000
 0.001804220000    0.051041670000    0.000000000000
 0.001804220000    0.048958330000    0.000000000000
 0.001804220000    0.046875000000    0.000000000000
 0.001804220000    0.044791670000    0.000000000000
 0.001804220000    0.042708330000    0.000000000000
 0.001804220000    0.040625000000    0.000000000000
 0.001804220000    0.038541670000    0.000000000000
 0.001804220000    0.036458330000    0.000000000000
 0.001804220000    0.034375000000    0.000000000000
 0.001804220000    0.032291670000    0.000000000000
 0.001804220000    0.030208330000    0.000000000000
 0.001804220000    0.028125000000    0.000000000000
 0.001804220000    0.026041670000    0.000000000000
 0.001804220000    0.023958330000    0.000000000000
 0.001804220000    0.021875000000    0.000000000000
 0.001813635000    0.019764200000    0.000000000000
 0.001813635000    0.017680870000    0.000000000000
 0.001809375000    0.015593710000    0.000000000000
 0.001809375000    0.013510380000    0.000000000000
 0.001820075000    0.011366040000    0.000000000000
 0.001820075000    0.009282710000    0.000000000000
 0.001682424000    0.007217537000    0.000000000000
 0.001682424000    0.005134204000    0.000000000000
 0.003364849000    0.006101742000    0.000000000000
 0.003640149000    0.010232090000    0.000000000000
 0.003618749000    0.014520750000    0.000000000000
 0.003627269000    0.018695070000    0.000000000000
 0.003608439000    0.022916670000    0.000000000000
 0.003608439000    0.027083330000    0.000000000000
 0.003608439000    0.031250000000    0.000000000000
 0.003608439000    0.035416670000    0.000000000000
 0.003608439000    0.039583330000    0.000000000000
 0.003608439000    0.043750000000    0.000000000000
 0.003608439000    0.047916670000    0.000000000000
 0.003608439000    0.052083330000    0.000000000000
 0.003608439000    0.056250000000    0.000000000000
 0.003608439000    0.060416670000    0.000000000000
 0.003608439000    0.064583330000    0.000000000000
 0.003608439000    0.068750000000    0.000000000000
 0.003608439000    0.072916670000    0.000000000000
 0.003608439000    0.077083330000    0.000000000000
 0.003625889000    0.081295360000    0.000000000000
 0.003630114000    0.085503430000    0.000000000000
 0.003635352000    0.089736870000    0.000000000000
 0.003351355000    0.093861250000    0.000000000000
 0.006081007000    0.096568470000    0.000000000000
 0.010195920000    0.096222890000    0.000000000000
 0.014460240000    0.096311870000    0.000000000000
 0.018674490000    0.096337220000    0.000000000000
 0.022866540000    0.096350040000    0.000000000000
 0.027083330000    0.096391560000    0.000000000000
 0.031290970000    0.096372110000    0.000000000000
 0.035461660000    0.096382980000    0.000000000000
 0.039736490000    0.096364840000    0.000000000000
 0.043861190000    0.096648680000    0.000000000000
 0.046568470000    0.093918990000    0.000000000000
 0.046222890000    0.089804080000    0.000000000000
 0.046311830000    0.085539790000    0.000000000000
 0.046337210000    0.081325520000    0.000000000000
 0.046348570000    0.077134550000    0.000000000000
 0.046391560000    0.072916670000    0.000000000000
 0.046391560000    0.068750000000    0.000000000000
 0.046391560000    0.064583330000    0.000000000000
 0.046391560000    0.060416670000    0.000000000000
 0.046391560000    0.056250000000    0.000000000000
 0.046391560000    0.052083330000    0.000000000000
 0.046391560000    0.047916670000    0.000000000000
 0.046391560000    0.043750000000    0.000000000000
 0.046391560000    0.039583330000    0.000000000000
 0.046391560000    0.035416670000    0.000000000000
 0.046391560000    0.031250000000    0.000000000000
 0.046391560000    0.027083330000    0.000000000000
 0.046391560000    0.022916670000    0.000000000000
 0.046374110000    0.018704640000    0.000000000000
 0.046369890000    0.014496570000    0.000000000000
 0.046364650000    0.010263130000    0.000000000000
 0.046648650000    0.006138748000    0.000000000000
 0.043918990000    0.003431528000    0.000000000000
 0.039804080000    0.003777110000    0.000000000000
 0.035539760000    0.003688128000    0.000000000000
 0.031325510000    0.003662784000    0.000000000000
 0.027128670000    0.003656312000    0.000000000000
 0.022899360000    0.003660052000    0.000000000000
 0.018657790000    0.003679406000    0.000000000000
 0.014466190000    0.003662762000    0.000000000000
 0.010262090000    0.003643813000    0.000000000000
 0.006109268000    0.003354193000    0.000000000000
 0.007624069000    0.007666253000    0.000000000000
 0.007233230000    0.012270440000    0.000000000000
 0.007290050000    0.016439680000    0.000000000000
 0.007311474000    0.020688580000    0.000000000000
 0.007279080000    0.024935880000    0.000000000000
 0.007216878000    0.029166670000    0.000000000000
 0.007216878000    0.033333330000    0.000000000000
 0.007216878000    0.037500000000    0.000000000000
 0.007216878000    0.041666670000    0.000000000000
 0.007216878000    0.045833330000    0.000000000000
 0.007216878000    0.050000000000    0.000000000000
 0.007216878000    0.054166670000    0.000000000000
 0.007216878000    0.058333330000    0.000000000000
 0.007216878000    0.062500000000    0.000000000000
 0.007216878000    0.066666670000    0.000000000000
 0.007216878000    0.070833330000    0.000000000000
 0.007216878000    0.075000000000    0.000000000000
 0.007284045000    0.079286390000    0.000000000000
 0.007276261000    0.083496460000    0.000000000000
 0.007243184000    0.087658550000    0.000000000000
 0.007600346000    0.092272700000    0.000000000000
 0.012197970000    0.092623840000    0.000000000000
 0.016388780000    0.092592210000    0.000000000000
 0.020629690000    0.092606170000    0.000000000000
 0.024929620000    0.092658320000    0.000000000000
 0.029241370000    0.092669300000    0.000000000000
 0.033486410000    0.092721520000    0.000000000000
 0.037657110000    0.092757530000    0.000000000000
 0.042272320000    0.092399850000    0.000000000000
 0.042623570000    0.087802170000    0.000000000000
 0.042592160000    0.083611250000    0.000000000000
 0.042603340000    0.079373380000    0.000000000000
 0.042681180000    0.075100340000    0.000000000000
 0.042745850000    0.070866200000    0.000000000000
 0.042783120000    0.066666670000    0.000000000000
 0.042783120000    0.062500000000    0.000000000000
 0.042783120000    0.058333330000    0.000000000000
 0.042783120000    0.054166670000    0.000000000000
 0.042783120000    0.050000000000    0.000000000000
 0.042783120000    0.045833330000    0.000000000000
 0.042783120000    0.041666670000    0.000000000000
 0.042783120000    0.037500000000    0.000000000000
 0.042783120000    0.033333330000    0.000000000000
 0.042783120000    0.029166670000    0.000000000000
 0.042783120000    0.025000000000    0.000000000000
 0.042715970000    0.020713610000    0.000000000000
 0.042723740000    0.016503540000    0.000000000000
 0.042756820000    0.012341450000    0.000000000000
 0.042399650000    0.007727297000    0.000000000000
 0.037802030000    0.007376155000    0.000000000000
 0.033611220000    0.007407788000    0.000000000000
 0.029355730000    0.007412510000    0.000000000000
 0.025025520000    0.007397647000    0.000000000000
 0.020674110000    0.007416153000    0.000000000000
 0.016381100000    0.007399855000    0.000000000000
 0.012206290000    0.007333963000    0.000000000000
 0.010388000000    0.010537390000    0.000000000000
 0.010874740000    0.014074630000    0.000000000000
 0.011116370000    0.018338020000    0.000000000000
 0.011060030000    0.022695740000    0.000000000000
 0.010961310000    0.026988840000    0.000000000000
 0.010869230000    0.031225210000    0.000000000000
 0.010825320000    0.035416670000    0.000000000000
 0.010825320000    0.039583330000    0.000000000000
 0.010825320000    0.043750000000    0.000000000000
 0.010825320000    0.047916670000    0.000000000000
 0.010825320000    0.052083330000    0.000000000000
 0.010825320000    0.056250000000    0.000000000000
 0.010825320000    0.060416670000    0.000000000000
 0.010825320000    0.064583330000    0.000000000000
 0.010825320000    0.068750000000    0.000000000000
 0.010859310000    0.072978830000    0.000000000000
 0.010944680000    0.077277320000    0.000000000000
 0.011064930000    0.081625900000    0.000000000000
 0.010903920000    0.085811770000    0.000000000000
 0.010423310000    0.089422100000    0.000000000000
 0.014000180000    0.088845710000    0.000000000000
 0.018224840000    0.088724440000    0.000000000000
 0.022670450000    0.088829220000    0.000000000000
 0.027102250000    0.088962370000    0.000000000000
 0.031555620000    0.088909920000    0.000000000000
 0.035805470000    0.089099220000    0.000000000000
 0.039420840000    0.089577320000    0.000000000000
 0.038845710000    0.085999820000    0.000000000000
 0.038711830000    0.081774530000    0.000000000000
 0.038873390000    0.077363320000    0.000000000000
 0.039052990000    0.073013530000    0.000000000000
 0.039137860000    0.068778780000    0.000000000000
 0.039174680000    0.064583330000    0.000000000000
 0.039174680000    0.060416670000    0.000000000000
 0.039174680000    0.056250000000    0.000000000000
 0.039174680000    0.052083330000    0.000000000000
 0.039174680000    0.047916670000    0.000000000000
 0.039174680000    0.043750000000    0.000000000000
 0.039174680000    0.039583330000    0.000000000000
 0.039174680000    0.035416670000    0.000000000000
 0.039174680000    0.031250000000    0.000000000000
 0.039141560000    0.027021170000    0.000000000000
 0.039056020000    0.022722680000    0.000000000000
 0.038935150000    0.018374100000    0.000000000000
 0.039096080000    0.014188230000    0.000000000000
 0.039576690000    0.010577900000    0.000000000000
 0.035999820000    0.011154290000    0.000000000000
 0.031764980000    0.011281350000    0.000000000000
 0.027283390000    0.011212890000    0.000000000000
 0.022794550000    0.011144570000    0.000000000000
 0.018286330000    0.011215390000    0.000000000000
 0.013922910000    0.011191170000    0.000000000000
 0.015368700000    0.015556770000    0.000000000000
 0.014908530000    0.020421640000    0.000000000000
 0.014825330000    0.024772300000    0.000000000000
 0.014561210000    0.029112420000    0.000000000000
 0.014433760000    0.033333330000    0.000000000000
 0.014433760000    0.037500000000    0.000000000000
 0.014433760000    0.041666670000    0.000000000000
 0.014433760000    0.045833330000    0.000000000000
 0.014433760000    0.050000000000    0.000000000000
 0.014433760000    0.054166670000    0.000000000000
 0.014433760000    0.058333330000    0.000000000000
 0.014433760000    0.062500000000    0.000000000000
 0.014433760000    0.066666670000    0.000000000000
 0.014477510000    0.070921200000    0.000000000000
 0.014576190000    0.075238830000    0.000000000000
 0.014707210000    0.079577340000    0.000000000000
 0.015336890000    0.084422170000    0.000000000000
 0.020275620000    0.084941850000    0.000000000000
 0.024875610000    0.085010710000    0.000000000000
 0.029404700000    0.085259930000    0.000000000000
 0.034320430000    0.084679890000    0.000000000000
 0.034965390000    0.079691060000    0.000000000000
 0.035225580000    0.075227080000    0.000000000000
 0.035504260000    0.070876310000    0.000000000000
 0.035566240000    0.066666670000    0.000000000000
 0.035566240000    0.062500000000    0.000000000000
 0.035566240000    0.058333330000    0.000000000000
 0.035566240000    0.054166670000    0.000000000000
 0.035566240000    0.050000000000    0.000000000000
 0.035566240000    0.045833330000    0.000000000000
 0.035566240000    0.041666670000    0.000000000000
 0.035566240000    0.037500000000    0.000000000000
 0.035566240000    0.033333330000    0.000000000000
 0.035553230000    0.029123160000    0.000000000000
 0.035467060000    0.024804530000    0.000000000000
 0.035293260000    0.020422660000    0.000000000000
 0.034663110000    0.015577830000    0.000000000000
 0.029707090000    0.015031040000    0.000000000000
 0.025052500000    0.015010210000    0.000000000000
 0.020424400000    0.014821210000    0.000000000000
 0.018326000000    0.018440670000    0.000000000000
 0.019229850000    0.022312570000    0.000000000000
 0.018323100000    0.027027130000    0.000000000000
 0.018096440000    0.031236050000    0.000000000000
 0.018042200000    0.035416670000    0.000000000000
 0.018042200000    0.039583330000    0.000000000000
 0.018042200000    0.043750000000    0.000000000000
 0.018042200000    0.047916670000    0.000000000000
 0.018042200000    0.052083330000    0.000000000000
 0.018042200000    0.056250000000    0.000000000000
 0.018042200000    0.060416670000    0.000000000000
 0.018042200000    0.064583330000    0.000000000000
 0.018058620000    0.068808450000    0.000000000000
 0.018152320000    0.073127790000    0.000000000000
 0.018316100000    0.077550490000    0.000000000000
 0.018174140000    0.081514510000    0.000000000000
 0.022423980000    0.080433410000    0.000000000000
 0.027466290000    0.081208620000    0.000000000000
 0.031370930000    0.081729630000    0.000000000000
 0.030767730000    0.077493430000    0.000000000000
 0.031957800000    0.072916670000    0.000000000000
 0.032013230000    0.068735290000    0.000000000000
 0.032035570000    0.064577240000    0.000000000000
 0.032039760000    0.060415040000    0.000000000000
 0.032040530000    0.056249630000    0.000000000000
 0.032040680000    0.052083250000    0.000000000000
 0.032040700000    0.047916650000    0.000000000000
 0.032040710000    0.043750000000    0.000000000000
 0.032040710000    0.039583330000    0.000000000000
 0.032040710000    0.035416670000    0.000000000000
 0.032025420000    0.031191030000    0.000000000000
 0.031914880000    0.026899810000    0.000000000000
 0.031746800000    0.022451480000    0.000000000000
 0.031825860000    0.018485490000    0.000000000000
 0.027599940000    0.019585950000    0.000000000000
 0.022471070000    0.018827060000    0.000000000000
 0.021711170000    0.025684900000    0.000000000000
 0.021710680000    0.029228410000    0.000000000000
 0.021650640000    0.033333330000    0.000000000000
 0.021650640000    0.037500000000    0.000000000000
 0.021650640000    0.041666670000    0.000000000000
 0.021650640000    0.045833330000    0.000000000000
 0.021650640000    0.050000000000    0.000000000000
 0.021650640000    0.054166670000    0.000000000000
 0.021650640000    0.058333330000    0.000000000000
 0.021603350000    0.062504170000    0.000000000000
 0.021616280000    0.066696080000    0.000000000000
 0.021676470000    0.070956990000    0.000000000000
 0.021940740000    0.075380470000    0.000000000000
 0.025969710000    0.077253120000    0.000000000000
 0.028476300000    0.074292650000    0.000000000000
 0.028539490000    0.070720860000    0.000000000000
 0.028553770000    0.066647920000    0.000000000000
 0.028556150000    0.062496880000    0.000000000000
 0.028556550000    0.058332810000    0.000000000000
 0.028556610000    0.054166580000    0.000000000000
 0.028556620000    0.049999990000    0.000000000000
 0.028556620000    0.045833330000    0.000000000000
 0.028556620000    0.041666670000    0.000000000000
 0.028556620000    0.037500000000    0.000000000000
 0.028556620000    0.033333330000    0.000000000000
 0.028520810000    0.029039890000    0.000000000000
 0.028182870000    0.024626040000    0.000000000000
 0.024193750000    0.022791730000    0.000000000000
 0.025098470000    0.027064660000    0.000000000000
 0.025132720000    0.031236050000    0.000000000000
 0.025134380000    0.035414340000    0.000000000000
 0.025134660000    0.039582950000    0.000000000000
 0.025134710000    0.043749930000    0.000000000000
 0.025134720000    0.047916650000    0.000000000000
 0.025134720000    0.052083310000    0.000000000000
 0.025134700000    0.056249900000    0.000000000000
 0.025134620000    0.060416040000    0.000000000000
 0.025134150000    0.064579580000    0.000000000000
 0.025135600000    0.068748120000    0.000000000000
 0.025259070000    0.072916670000    0.000000000000
 0.002805021000    0.002805021000    0.000000000000
 0.047194980000    0.002805021000    0.000000000000
 0.047194980000    0.097194980000    0.000000000000
 0.002805021000    0.097194980000    0.000000000000

CELLS   654   4578
              6              1336              1302              1301               144               352               317
              6              1336              1364              1302               258               257               144
              6              1364              1365              1337               145               225               256
              6              1364              1363              1365               226               177               145
              6              1378              1143                23               146               980               160
              6              1378              1142              1143               158               906               146
              6              1379              1121                71               147              1024               156
              6              1379              1120              1121               154               928               147
              6              1380              1111                95               148              1044               152
              6              1380              1110              1111               150               938               148
              6              1377              1089               142               149              1088               164
              6              1377              1152              1089               162               960               149
              6              1110              1380                98               150               151              1045
              6              1380                73                98               153                97               151
              6                95                73              1380                96               153               152
              6              1120              1379                75               154               155              1025
              6              1379                25                75               157                74               155
              6                71                25              1379                72               157               156
              6              1142              1378                27               158               159               981
              6              1378                 1                27               161                26               159
              6                23                 1              1378                24               161               160
              6              1152              1377                 3               162               163               961
              6              1377                 0                 3               165                 2               163
              6               142                 0              1377               143               165               164
              6              1362              1366              1365               179               176               178
              6              1361              1367              1366               181               175               180
              6              1360              1368              1367               183               174               182
              6              1359              1369              1368               185               173               184
              6              1358              1370              1369               187               172               186
              6              1357              1371              1370               189               171               188
              6              1356              1372              1371               191               170               190
              6              1355              1373              1372               193               169               192
              6              1354              1374              1373               195               168               194
              6              1353              1375              1374               197               167               196
              6              1352              1376              1375               199               166               198
              6              1348              1375              1376               204               166               203
              6              1347              1374              1375               206               167               205
              6              1346              1373              1374               208               168               207
              6              1345              1372              1373               210               169               209
              6              1344              1371              1372               212               170               211
              6              1343              1370              1371               214               171               213
              6              1342              1369              1370               216               172               215
              6              1341              1368              1369               218               173               217
              6              1340              1367              1368               220               174               219
              6              1339              1366              1367               222               175               221
              6              1338              1365              1366               224               176               223
              6              1363              1362              1365               228               178               177
              6              1362              1361              1366               229               180               179
              6              1361              1360              1367               230               182               181
              6              1360              1359              1368               231               184               183
              6              1359              1358              1369               232               186               185
              6              1358              1357              1370               233               188               187
              6              1357              1356              1371               234               190               189
              6              1356              1355              1372               235               192               191
              6              1355              1354              1373               236               194               193
              6              1354              1353              1374               237               196               195
              6              1353              1352              1375               238               198               197
              6              1352              1351              1376               239               200               199
              6              1351              1350              1376               240               201               200
              6              1350              1349              1376               242               202               201
              6              1349              1348              1376               244               203               202
              6              1348              1347              1375               245               205               204
              6              1347              1346              1374               246               207               206
              6              1346              1345              1373               247               209               208
              6              1345              1344              1372               248               211               210
              6              1344              1343              1371               249               213               212
              6              1343              1342              1370               250               215               214
              6              1342              1341              1369               251               217               216
              6              1341              1340              1368               252               219               218
              6              1340              1339              1367               253               221               220
              6              1339              1338              1366               254               223               222
              6              1338              1337              1365               255               225               224
              6              1364              1335              1363               259               227               226
              6              1333              1363              1335               261               227               260
              6              1332              1362              1363               263               228               262
              6              1331              1361              1362               265               229               264
              6              1330              1360              1361               267               230               266
              6              1329              1359              1360               269               231               268
              6              1328              1358              1359               271               232               270
              6              1327              1357              1358               273               233               272
              6              1326              1356              1357               275               234               274
              6              1325              1355              1356               277               235               276
              6              1324              1354              1355               279               236               278
              6              1323              1353              1354               281               237               280
              6              1322              1352              1353               283               238               282
              6              1321              1351              1352               285               239               284
              6              1351              1320              1350               286               241               240
              6              1318              1350              1320               288               241               287
              6              1350              1317              1349               289               243               242
              6              1315              1349              1317               291               243               290
              6              1314              1348              1349               293               244               292
              6              1313              1347              1348               295               245               294
              6              1312              1346              1347               297               246               296
              6              1311              1345              1346               299               247               298
              6              1310              1344              1345               301               248               300
              6              1309              1343              1344               303               249               302
              6              1308              1342              1343               305               250               304
              6              1307              1341              1342               307               251               306
              6              1306              1340              1341               309               252               308
              6              1305              1339              1340               311               253               310
              6              1304              1338              1339               313               254               312
              6              1303              1337              1338               315               255               314
              6              1337              1302              1364               316               257               256
              6              1336              1335              1364               318               259               258
              6              1334              1333              1335               320               260               319
              6              1333              1332              1363               321               262               261
              6              1332              1331              1362               322               264               263
              6              1331              1330              1361               323               266               265
              6              1330              1329              1360               324               268               267
              6              1329              1328              1359               325               270               269
              6              1328              1327              1358               326               272               271
              6              1327              1326              1357               327               274               273
              6              1326              1325              1356               328               276               275
              6              1325              1324              1355               329               278               277
              6              1324              1323              1354               330               280               279
              6              1323              1322              1353               331               282               281
              6              1322              1321              1352               332               284               283
              6              1321              1320              1351               333               286               285
              6              1319              1318              1320               335               287               334
              6              1318              1317              1350               336               289               288
              6              1316              1315              1317               338               290               337
              6              1315              1314              1349               339               292               291
              6              1314              1313              1348               340               294               293
              6              1313              1312              1347               341               296               295
              6              1312              1311              1346               342               298               297
              6              1311              1310              1345               343               300               299
              6              1310              1309              1344               344               302               301
              6              1309              1308              1343               345               304               303
              6              1308              1307              1342               346               306               305
              6              1307              1306              1341               347               308               307
              6              1306              1305              1340               348               310               309
              6              1305              1304              1339               349               312               311
              6              1304              1303              1338               350               314               313
              6              1303              1302              1337               351               316               315
              6              1300              1336              1301               354               317               353
              6              1299              1335              1336               356               318               355
              6              1298              1334              1335               358               319               357
              6              1296              1333              1334               361               320               360
              6              1295              1332              1333               363               321               362
              6              1294              1331              1332               365               322               364
              6              1293              1330              1331               367               323               366
              6              1292              1329              1330               369               324               368
              6              1291              1328              1329               371               325               370
              6              1290              1327              1328               373               326               372
              6              1289              1326              1327               375               327               374
              6              1288              1325              1326               377               328               376
              6              1287              1324              1325               379               329               378
              6              1286              1323              1324               381               330               380
              6              1285              1322              1323               383               331               382
              6              1284              1321              1322               385               332               384
              6              1283              1320              1321               387               333               386
              6              1282              1319              1320               389               334               388
              6              1280              1318              1319               392               335               391
              6              1279              1317              1318               394               336               393
              6              1278              1316              1317               396               337               395
              6              1276              1315              1316               399               338               398
              6              1275              1314              1315               401               339               400
              6              1274              1313              1314               403               340               402
              6              1273              1312              1313               405               341               404
              6              1272              1311              1312               407               342               406
              6              1271              1310              1311               409               343               408
              6              1270              1309              1310               411               344               410
              6              1269              1308              1309               413               345               412
              6              1268              1307              1308               415               346               414
              6              1267              1306              1307               417               347               416
              6              1266              1305              1306               419               348               418
              6              1265              1304              1305               421               349               420
              6              1264              1303              1304               423               350               422
              6              1263              1302              1303               425               351               424
              6              1262              1301              1302               427               352               426
              6              1261              1300              1301               429               353               428
              6              1300              1299              1336               430               355               354
              6              1299              1298              1335               431               357               356
              6              1298              1297              1334               432               359               358
              6              1297              1296              1334               433               360               359
              6              1296              1295              1333               434               362               361
              6              1295              1294              1332               435               364               363
              6              1294              1293              1331               436               366               365
              6              1293              1292              1330               437               368               367
              6              1292              1291              1329               438               370               369
              6              1291              1290              1328               439               372               371
              6              1290              1289              1327               440               374               373
              6              1289              1288              1326               441               376               375
              6              1288              1287              1325               442               378               377
              6              1287              1286              1324               443               380               379
              6              1286              1285              1323               444               382               381
              6              1285              1284              1322               445               384               383
              6              1284              1283              1321               446               386               385
              6              1283              1282              1320               447               388               387
              6              1282              1281              1319               448               390               389
              6              1281              1280              1319               449               391               390
              6              1280              1279              1318               450               393               392
              6              1279              1278              1317               451               395               394
              6              1278              1277              1316               452               397               396
              6              1277              1276              1316               453               398               397
              6              1276              1275              1315               454               400               399
              6              1275              1274              1314               455               402               401
              6              1274              1273              1313               456               404               403
              6              1273              1272              1312               457               406               405
              6              1272              1271              1311               458               408               407
              6              1271              1270              1310               459               410               409
              6              1270              1269              1309               460               412               411
              6              1269              1268              1308               461               414               413
              6              1268              1267              1307               462               416               415
              6              1267              1266              1306               463               418               417
              6              1266              1265              1305               464               420               419
              6              1265              1264              1304               465               422               421
              6              1264              1263              1303               466               424               423
              6              1263              1262              1302               467               426               425
              6              1262              1261              1301               468               428               427
              6              1259              1300              1261               471               429               470
              6              1258              1299              1300               473               430               472
              6              1257              1298              1299               475               431               474
              6              1256              1297              1298               477               432               476
              6              1253              1297              1255               480               478               479
              6              1252              1296              1297               482               433               481
              6              1251              1295              1296               484               434               483
              6              1250              1294              1295               486               435               485
              6              1249              1293              1294               488               436               487
              6              1248              1292              1293               490               437               489
              6              1247              1291              1292               492               438               491
              6              1246              1290              1291               494               439               493
              6              1245              1289              1290               496               440               495
              6              1244              1288              1289               498               441               497
              6              1243              1287              1288               500               442               499
              6              1242              1286              1287               502               443               501
              6              1241              1285              1286               504               444               503
              6              1240              1284              1285               506               445               505
              6              1239              1283              1284               508               446               507
              6              1238              1282              1283               510               447               509
              6              1237              1281              1282               512               448               511
              6              1234              1281              1236               515               513               514
              6              1233              1280              1281               517               449               516
              6              1232              1279              1280               519               450               518
              6              1231              1278              1279               521               451               520
              6              1230              1277              1278               523               452               522
              6              1227              1277              1229               526               524               525
              6              1226              1276              1277               528               453               527
              6              1225              1275              1276               530               454               529
              6              1224              1274              1275               532               455               531
              6              1223              1273              1274               534               456               533
              6              1222              1272              1273               536               457               535
              6              1221              1271              1272               538               458               537
              6              1220              1270              1271               540               459               539
              6              1219              1269              1270               542               460               541
              6              1218              1268              1269               544               461               543
              6              1217              1267              1268               546               462               545
              6              1216              1266              1267               548               463               547
              6              1215              1265              1266               550               464               549
              6              1214              1264              1265               552               465               551
              6              1213              1263              1264               554               466               553
              6              1212              1262              1263               556               467               555
              6              1211              1261              1262               558               468               557
              6              1210              1260              1261               560               469               559
              6              1260              1259              1261               562               470               469
              6              1259              1258              1300               563               472               471
              6              1258              1257              1299               564               474               473
              6              1257              1256              1298               565               476               475
              6              1256              1255              1297               566               478               477
              6              1254              1253              1255               568               479               567
              6              1253              1252              1297               569               481               480
              6              1252              1251              1296               570               483               482
              6              1251              1250              1295               571               485               484
              6              1250              1249              1294               572               487               486
              6              1249              1248              1293               573               489               488
              6              1248              1247              1292               574               491               490
              6              1247              1246              1291               575               493               492
              6              1246              1245              1290               576               495               494
              6              1245              1244              1289               577               497               496
              6              1244              1243              1288               578               499               498
              6              1243              1242              1287               579               501               500
              6              1242              1241              1286               580               503               502
              6              1241              1240              1285               581               505               504
              6              1240              1239              1284               582               507               506
              6              1239              1238              1283               583               509               508
              6              1238              1237              1282               584               511               510
              6              1237              1236              1281               585               513               512
              6              1235              1234              1236               587               514               586
              6              1234              1233              1281               588               516               515
              6              1233              1232              1280               589               518               517
              6              1232              1231              1279               590               520               519
              6              1231              1230              1278               591               522               521
              6              1230              1229              1277               592               524               523
              6              1228              1227              1229               594               525               593
              6              1227              1226              1277               595               527               526
              6              1226              1225              1276               596               529               528
              6              1225              1224              1275               597               531               530
              6              1224              1223              1274               598               533               532
              6              1223              1222              1273               599               535               534
              6              1222              1221              1272               600               537               536
              6              1221              1220              1271               601               539               538
              6              1220              1219              1270               602               541               540
              6              1219              1218              1269               603               543               542
              6              1218              1217              1268               604               545               544
              6              1217              1216              1267               605               547               546
              6              1216              1215              1266               606               549               548
              6              1215              1214              1265               607               551               550
              6              1214              1213              1264               608               553               552
              6              1213              1212              1263               609               555               554
              6              1212              1211              1262               610               557               556
              6              1211              1210              1261               611               559               558
              6              1210              1209              1260               612               561               560
              6              1208              1260              1209               614               561               613
              6              1207              1259              1260               616               562               615
              6              1206              1258              1259               618               563               617
              6              1205              1257              1258               620               564               619
              6              1204              1256              1257               622               565               621
              6              1203              1255              1256               624               566               623
              6              1202              1254              1255               626               567               625
              6              1200              1253              1254               629               568               628
              6              1199              1252              1253               631               569               630
              6              1198              1251              1252               633               570               632
              6              1197              1250              1251               635               571               634
              6              1196              1249              1250               637               572               636
              6              1195              1248              1249               639               573               638
              6              1194              1247              1248               641               574               640
              6              1193              1246              1247               643               575               642
              6              1192              1245              1246               645               576               644
              6              1191              1244              1245               647               577               646
              6              1190              1243              1244               649               578               648
              6              1189              1242              1243               651               579               650
              6              1188              1241              1242               653               580               652
              6              1187              1240              1241               655               581               654
              6              1186              1239              1240               657               582               656
              6              1185              1238              1239               659               583               658
              6              1184              1237              1238               661               584               660
              6              1183              1236              1237               663               585               662
              6              1182              1235              1236               665               586               664
              6              1180              1234              1235               668               587               667
              6              1179              1233              1234               670               588               669
              6              1178              1232              1233               672               589               671
              6              1177              1231              1232               674               590               673
              6              1176              1230              1231               676               591               675
              6              1175              1229              1230               678               592               677
              6              1174              1228              1229               680               593               679
              6              1172              1227              1228               683               594               682
              6              1171              1226              1227               685               595               684
              6              1170              1225              1226               687               596               686
              6              1169              1224              1225               689               597               688
              6              1168              1223              1224               691               598               690
              6              1167              1222              1223               693               599               692
              6              1166              1221              1222               695               600               694
              6              1165              1220              1221               697               601               696
              6              1164              1219              1220               699               602               698
              6              1163              1218              1219               701               603               700
              6              1162              1217              1218               703               604               702
              6              1161              1216              1217               705               605               704
              6              1160              1215              1216               707               606               706
              6              1159              1214              1215               709               607               708
              6              1158              1213              1214               711               608               710
              6              1157              1212              1213               713               609               712
              6              1156              1211              1212               715               610               714
              6              1155              1210              1211               717               611               716
              6              1154              1209              1210               719               612               718
              6              1153              1208              1209               721               613               720
              6              1208              1207              1260               722               615               614
              6              1207              1206              1259               723               617               616
              6              1206              1205              1258               724               619               618
              6              1205              1204              1257               725               621               620
              6              1204              1203              1256               726               623               622
              6              1203              1202              1255               727               625               624
              6              1202              1201              1254               728               627               626
              6              1201              1200              1254               729               628               627
              6              1200              1199              1253               730               630               629
              6              1199              1198              1252               731               632               631
              6              1198              1197              1251               732               634               633
              6              1197              1196              1250               733               636               635
              6              1196              1195              1249               734               638               637
              6              1195              1194              1248               735               640               639
              6              1194              1193              1247               736               642               641
              6              1193              1192              1246               737               644               643
              6              1192              1191              1245               738               646               645
              6              1191              1190              1244               739               648               647
              6              1190              1189              1243               740               650               649
              6              1189              1188              1242               741               652               651
              6              1188              1187              1241               742               654               653
              6              1187              1186              1240               743               656               655
              6              1186              1185              1239               744               658               657
              6              1185              1184              1238               745               660               659
              6              1184              1183              1237               746               662               661
              6              1183              1182              1236               747               664               663
              6              1182              1181              1235               748               666               665
              6              1181              1180              1235               749               667               666
              6              1180              1179              1234               750               669               668
              6              1179              1178              1233               751               671               670
              6              1178              1177              1232               752               673               672
              6              1177              1176              1231               753               675               674
              6              1176              1175              1230               754               677               676
              6              1175              1174              1229               755               679               678
              6              1174              1173              1228               756               681               680
              6              1173              1172              1228               757               682               681
              6              1172              1171              1227               758               684               683
              6              1171              1170              1226               759               686               685
              6              1170              1169              1225               760               688               687
              6              1169              1168              1224               761               690               689
              6              1168              1167              1223               762               692               691
              6              1167              1166              1222               763               694               693
              6              1166              1165              1221               764               696               695
              6              1165              1164              1220               765               698               697
              6              1164              1163              1219               766               700               699
              6              1163              1162              1218               767               702               701
              6              1162              1161              1217               768               704               703
              6              1161              1160              1216               769               706               705
              6              1160              1159              1215               770               708               707
              6              1159              1158              1214               771               710               709
              6              1158              1157              1213               772               712               711
              6              1157              1156              1212               773               714               713
              6              1156              1155              1211               774               716               715
              6              1155              1154              1210               775               718               717
              6              1154              1153              1209               776               720               719
              6              1151              1208              1153               778               721               777
              6              1150              1207              1208               780               722               779
              6              1149              1206              1207               782               723               781
              6              1148              1205              1206               784               724               783
              6              1147              1204              1205               786               725               785
              6              1146              1203              1204               788               726               787
              6              1145              1202              1203               790               727               789
              6              1144              1201              1202               792               728               791
              6              1141              1200              1201               796               729               795
              6              1140              1199              1200               798               730               797
              6              1139              1198              1199               800               731               799
              6              1138              1197              1198               802               732               801
              6              1137              1196              1197               804               733               803
              6              1136              1195              1196               806               734               805
              6              1135              1194              1195               808               735               807
              6              1134              1193              1194               810               736               809
              6              1133              1192              1193               812               737               811
              6              1132              1191              1192               814               738               813
              6              1131              1190              1191               816               739               815
              6              1130              1189              1190               818               740               817
              6              1129              1188              1189               820               741               819
              6              1128              1187              1188               822               742               821
              6              1127              1186              1187               824               743               823
              6              1126              1185              1186               826               744               825
              6              1125              1184              1185               828               745               827
              6              1124              1183              1184               830               746               829
              6              1123              1182              1183               832               747               831
              6              1122              1181              1182               834               748               833
              6              1119              1180              1181               838               749               837
              6              1118              1179              1180               840               750               839
              6              1117              1178              1179               842               751               841
              6              1116              1177              1178               844               752               843
              6              1115              1176              1177               846               753               845
              6              1114              1175              1176               848               754               847
              6              1113              1174              1175               850               755               849
              6              1112              1173              1174               852               756               851
              6              1109              1172              1173               856               757               855
              6              1108              1171              1172               858               758               857
              6              1107              1170              1171               860               759               859
              6              1106              1169              1170               862               760               861
              6              1105              1168              1169               864               761               863
              6              1104              1167              1168               866               762               865
              6              1103              1166              1167               868               763               867
              6              1102              1165              1166               870               764               869
              6              1101              1164              1165               872               765               871
              6              1100              1163              1164               874               766               873
              6              1099              1162              1163               876               767               875
              6              1098              1161              1162               878               768               877
              6              1097              1160              1161               880               769               879
              6              1096              1159              1160               882               770               881
              6              1095              1158              1159               884               771               883
              6              1094              1157              1158               886               772               885
              6              1093              1156              1157               888               773               887
              6              1092              1155              1156               890               774               889
              6              1091              1154              1155               892               775               891
              6              1090              1153              1154               894               776               893
              6              1152              1151              1153               897               777               896
              6              1151              1150              1208               898               779               778
              6              1150              1149              1207               899               781               780
              6              1149              1148              1206               900               783               782
              6              1148              1147              1205               901               785               784
              6              1147              1146              1204               902               787               786
              6              1146              1145              1203               903               789               788
              6              1145              1144              1202               904               791               790
              6              1144              1143              1201               905               793               792
              6              1143              1142              1201               906               794               793
              6              1142              1141              1201               907               795               794
              6              1141              1140              1200               908               797               796
              6              1140              1139              1199               909               799               798
              6              1139              1138              1198               910               801               800
              6              1138              1137              1197               911               803               802
              6              1137              1136              1196               912               805               804
              6              1136              1135              1195               913               807               806
              6              1135              1134              1194               914               809               808
              6              1134              1133              1193               915               811               810
              6              1133              1132              1192               916               813               812
              6              1132              1131              1191               917               815               814
              6              1131              1130              1190               918               817               816
              6              1130              1129              1189               919               819               818
              6              1129              1128              1188               920               821               820
              6              1128              1127              1187               921               823               822
              6              1127              1126              1186               922               825               824
              6              1126              1125              1185               923               827               826
              6              1125              1124              1184               924               829               828
              6              1124              1123              1183               925               831               830
              6              1123              1122              1182               926               833               832
              6              1122              1121              1181               927               835               834
              6              1121              1120              1181               928               836               835
              6              1120              1119              1181               929               837               836
              6              1119              1118              1180               930               839               838
              6              1118              1117              1179               931               841               840
              6              1117              1116              1178               932               843               842
              6              1116              1115              1177               933               845               844
              6              1115              1114              1176               934               847               846
              6              1114              1113              1175               935               849               848
              6              1113              1112              1174               936               851               850
              6              1112              1111              1173               937               853               852
              6              1111              1110              1173               938               854               853
              6              1110              1109              1173               939               855               854
              6              1109              1108              1172               940               857               856
              6              1108              1107              1171               941               859               858
              6              1107              1106              1170               942               861               860
              6              1106              1105              1169               943               863               862
              6              1105              1104              1168               944               865               864
              6              1104              1103              1167               945               867               866
              6              1103              1102              1166               946               869               868
              6              1102              1101              1165               947               871               870
              6              1101              1100              1164               948               873               872
              6              1100              1099              1163               949               875               874
              6              1099              1098              1162               950               877               876
              6              1098              1097              1161               951               879               878
              6              1097              1096              1160               952               881               880
              6              1096              1095              1159               953               883               882
              6              1095              1094              1158               954               885               884
              6              1094              1093              1157               955               887               886
              6              1093              1092              1156               956               889               888
              6              1092              1091              1155               957               891               890
              6              1091              1090              1154               958               893               892
              6              1090              1089              1153               959               895               894
              6              1089              1152              1153               960               896               895
              6                 5              1151              1152               963               897               962
              6                 7              1150              1151               965               898               964
              6                 9              1149              1150               967               899               966
              6                11              1148              1149               969               900               968
              6                13              1147              1148               971               901               970
              6                15              1146              1147               973               902               972
              6                17              1145              1146               975               903               974
              6                19              1144              1145               977               904               976
              6                21              1143              1144               979               905               978
              6                29              1141              1142               983               907               982
              6                31              1140              1141               985               908               984
              6                33              1139              1140               987               909               986
              6                35              1138              1139               989               910               988
              6                37              1137              1138               991               911               990
              6                39              1136              1137               993               912               992
              6                41              1135              1136               995               913               994
              6                43              1134              1135               997               914               996
              6                45              1133              1134               999               915               998
              6                47              1132              1133              1001               916              1000
              6                49              1131              1132              1003               917              1002
              6                51              1130              1131              1005               918              1004
              6                53              1129              1130              1007               919              1006
              6                55              1128              1129              1009               920              1008
              6                57              1127              1128              1011               921              1010
              6                59              1126              1127              1013               922              1012
              6                61              1125              1126              1015               923              1014
              6                63              1124              1125              1017               924              1016
              6                65              1123              1124              1019               925              1018
              6                67              1122              1123              1021               926              1020
              6                69              1121              1122              1023               927              1022
              6                77              1119              1120              1027               929              1026
              6                79              1118              1119              1029               930              1028
              6                81              1117              1118              1031               931              1030
              6                83              1116              1117              1033               932              1032
              6                85              1115              1116              1035               933              1034
              6                87              1114              1115              1037               934              1036
              6                89              1113              1114              1039               935              1038
              6                91              1112              1113              1041               936              1040
              6                93              1111              1112              1043               937              1042
              6               100              1109              1110              1047               939              1046
              6               102              1108              1109              1049               940              1048
              6               104              1107              1108              1051               941              1050
              6               106              1106              1107              1053               942              1052
              6               108              1105              1106              1055               943              1054
              6               110              1104              1105              1057               944              1056
              6               112              1103              1104              1059               945              1058
              6               114              1102              1103              1061               946              1060
              6               116              1101              1102              1063               947              1062
              6               118              1100              1101              1065               948              1064
              6               120              1099              1100              1067               949              1066
              6               122              1098              1099              1069               950              1068
              6               124              1097              1098              1071               951              1070
              6               126              1096              1097              1073               952              1072
              6               128              1095              1096              1075               953              1074
              6               130              1094              1095              1077               954              1076
              6               132              1093              1094              1079               955              1078
              6               134              1092              1093              1081               956              1080
              6               136              1091              1092              1083               957              1082
              6               138              1090              1091              1085               958              1084
              6               140              1089              1090              1087               959              1086
              6                 3                 5              1152                 4               962               961
              6                 5                 7              1151                 6               964               963
              6                 7                 9              1150                 8               966               965
              6                 9                11              1149                10               968               967
              6                11                13              1148                12               970               969
              6                13                15              1147                14               972               971
              6                15                17              1146                16               974               973
              6                17                19              1145                18               976               975
              6                19                21              1144                20               978               977
              6                21                23              1143                22               980               979
              6                27                29              1142                28               982               981
              6                29                31              1141                30               984               983
              6                31                33              1140                32               986               985
              6                33                35              1139                34               988               987
              6                35                37              1138                36               990               989
              6                37                39              1137                38               992               991
              6                39                41              1136                40               994               993
              6                41                43              1135                42               996               995
              6                43                45              1134                44               998               997
              6                45                47              1133                46              1000               999
              6                47                49              1132                48              1002              1001
              6                49                51              1131                50              1004              1003
              6                51                53              1130                52              1006              1005
              6                53                55              1129                54              1008              1007
              6                55                57              1128                56              1010              1009
              6                57                59              1127                58              1012              1011
              6                59                61              1126                60              1014              1013
              6                61                63              1125                62              1016              1015
              6                63                65              1124                64              1018              1017
              6                65                67              1123                66              1020              1019
              6                67                69              1122                68              1022              1021
              6                69                71              1121                70              1024              1023
              6                75                77              1120                76              1026              1025
              6                77                79              1119                78              1028              1027
              6                79                81              1118                80              1030              1029
              6                81                83              1117                82              1032              1031
              6                83                85              1116                84              1034              1033
              6                85                87              1115                86              1036              1035
              6                87                89              1114                88              1038              1037
              6                89                91              1113                90              1040              1039
              6                91                93              1112                92              1042              1041
              6                93                95              1111                94              1044              1043
              6                98               100              1110                99              1046              1045
              6               100               102              1109               101              1048              1047
              6               102               104              1108               103              1050              1049
              6               104               106              1107               105              1052              1051
              6               106               108              1106               107              1054              1053
              6               108               110              1105               109              1056              1055
              6               110               112              1104               111              1058              1057
              6               112               114              1103               113              1060              1059
              6               114               116              1102               115              1062              1061
              6               116               118              1101               117              1064              1063
              6               118               120              1100               119              1066              1065
              6               120               122              1099               121              1068              1067
              6               122               124              1098               123              1070              1069
              6               124               126              1097               125              1072              1071
              6               126               128              1096               127              1074              1073
              6               128               130              1095               129              1076              1075
              6               130               132              1094               131              1078              1077
              6               132               134              1093               133              1080              1079
              6               134               136              1092               135              1082              1081
              6               136               138              1091               137              1084              1083
              6               138               140              1090               139              1086              1085
              6               140               142              1089               141              1088              1087
CELL_TYPES               654
             22
             22
             22
             22
             22
             22
             22
             22
             22
             22
             22
             22
             22
             22
             22
             22
             22
             22
             22
             22
             22
             22
             22
             22
             22
             22
             22
             22
             22
             22
             22
             22
             22
             22
             22
             22
             22
             22
             22
             22
             22
             22
             22
             22
             22
             22
             22
             22
             22
             22
             22
             22
             22
             22
             22
             22
             22
             22
             22
             22
             22
             22
             22
             22
             22
             22
             22
             22
             22
             22
             22
             22
             22
             22
             22
             22
             22
             22
             22
             22
             22
             22
             22
             22
             22
             22
             22
             22
             22
             22
             22
             22
             22
             22
             22
             22
             22
             22
             22
             22
             22
             22
             22
             22
             22
             22
             22
             22
             22
             22
             22
             22
             22
             22
             22
             22
             22
             22
             22
             22
             22
             22
             22
             22
             22
             22
             22
             22
             22
             22
             22
             22
             22
             22
             22
             22
             22
             22
             22
             22
             22
             22
             22
             22
             22
             22
             22
             22
             22
             22
             22
             22
             22
             22
             22
             22
             22
             22
             22
             22
             22
             22
             22
             22
             22
             22
             22
             22
             22
             22
             22
             22
             22
             22
             22
             22
             22
             22
             22
             22
             22
             22
             22
             22
             22
             22
             22
             22
             22
             22
             22
             22
             22
             22
             22
             22
             22
             22
             22
             22
             22
             22
             22
             22
             22
             22
             22
             22
             22
             22
             22
             22
             22
             22
             22
             22
             22
             22
             22
             22
             22
             22
             22
             22
             22
             22
             22
             22
             22
             22
             22
             22
             22
             22
             22
             22
             22
             22
             22
             22
             22
             22
             22
             22
             22
             22
             22
             22
             22
             22
             22
             22
             22
             22
             22
             22
             22
             22
             22
             22
             22
             22
             22
             22
             22
             22
             22
             22
             22
             22
             22
             22
             22
             22
             22
             22
             22
             22
             22
             22
             22
             22
             22
             22
             22
             22
             22
             22
             22
             22
             22
             22
             22
             22
             22
             22
             22
             22
             22
             22
             22
             22
             22
             22
             22
             22
             22
             22
             22
             22
             22
             22
             22
             22
             22
             22
             22
             22
             22
             22
             22
             22
             22
             22
             22
             22
             22
             22
             22
             22
             22
             22
             22
             22
             22
             22
             22
             22
             22
             22
             22
             22
             22
             22
             22
             22
             22
             22
             22
             22
             22
             22
             22
             22
             22
             22
             22
             22
             22
             22
             22
             22
             22
             22
             22
             22
             22
             22
             22
             22
             22
             22
             22
             22
             22
             22
             22
             22
             22
             22
             22
             22
             22
             22
             22
             22
             22
             22
             22
             22
             22
             22
             22
             22
             22
             22
             22
             22
             22
             22
             22
             22
             22
             22
             22
             22
             22
             22
             22
             22
             22
             22
             22
             22
             22
             22
             22
             22
             22
             22
             22
             22
             22
             22
             22
             22
             22
             22
             22
             22
             22
             22
             22
             22
             22
             22
             22
             22
             22
             22
             22
             22
             22
             22
             22
             22
             22
             22
             22
             22
             22
             22
             22
             22
             22
             22
             22
             22
             22
             22
             22
             22
             22
             22
             22
             22
             22
             22
             22
             22
             22
             22
             22
             22
             22
             22
             22
             22
             22
             22
             22
             22
             22
             22
             22
             22
             22
             22
             22
             22
             22
             22
             22
             22
             22
             22
             22
             22
             22
             22
             22
             22
             22
             22
             22
             22
             22
             22
             22
             22
             22
             22
             22
             22
             22
             22
             22
             22
             22
             22
             22
             22
             22
             22
             22
             22
             22
             22
             22
             22
             22
             22
             22
             22
             22
             22
             22
             22
             22
             22
             22
             22
             22
             22
             22
             22
             22
             22
             22
             22
             22
             22
             22
             22
             22
             22
             22
             22
             22
             22
             22
             22
             22
             22
             22
             22
             22
             22
             22
             22
             22
             22
             22
             22
             22
             22
             22
             22
             22
             22
             22
             22
             22
             22
             22
             22
             22
             22
             22
             22
             22
             22
             22
             22
             22
             22
             22
             22
             22
             22
             22
             22
             22
             22
             22
             22
             22
             22
             22
             22
             22
             22
             22
             22
             22
             22
             22
             22
             22
             22
             22
             22
             22
             22
             22
             22
             22
             22
             22
             22
             22
             22
             22
             22
             22
             22
             22
             22
             22
             22
             22
             22
             22
             22
             22
             22
             22
             22
             22
             22
             22
             22
             22
             22

POINT_DATA   1381

VECTORS   nDisp   float
 0.000000000000   -0.000000000000    0.000000000000
 0.008408975582   -0.000000000000    0.000000000000
 0.000350374893   -0.000000000000    0.000000000000
 0.000700749939   -0.000000000000    0.000000000000
 0.001051124791   -0.000000000000    0.000000000000
 0.001401499616   -0.000000000000    0.000000000000
 0.001751875055   -0.000000000000    0.000000000000
 0.002102249264   -0.000000000000    0.000000000000
 0.002452623404   -0.000000000000    0.000000000000
 0.002802999151   -0.000000000000    0.000000000000
 0.003153373112   -0.000000000000    0.000000000000
 0.003503746980   -0.000000000000    0.000000000000
 0.003854122457   -0.000000000000    0.000000000000
 0.004204496164   -0.000000000000    0.000000000000
 0.004554869702   -0.000000000000    0.000000000000
 0.004905244738   -0.000000000000    0.000000000000
 0.005255618038   -0.000000000000    0.000000000000
 0.005605991295   -0.000000000000    0.000000000000
 0.005956365970   -0.000000000000    0.000000000000
 0.006306738656   -0.000000000000    0.000000000000
 0.006657111071   -0.000000000000    0.000000000000
 0.007007485536   -0.000000000000    0.000000000000
 0.007357858588   -0.000000000000    0.000000000000
 0.007708231046   -0.000000000000    0.000000000000
 0.008058604318   -0.000000000000    0.000000000000
 0.008408927212   -0.010000000002    0.000000000000
 0.008408976051   -0.000208332855    0.000000000000
 0.008408975835   -0.000416665654    0.000000000000
 0.008408975540   -0.000624998110    0.000000000000
 0.008408975916   -0.000833331142    0.000000000000
 0.008408973214   -0.001041664955    0.000000000000
 0.008408969833   -0.001249996930    0.000000000000
 0.008408972105   -0.001458328875    0.000000000000
 0.008408972476   -0.001666662885    0.000000000000
 0.008408969764   -0.001874995148    0.000000000000
 0.008408970389   -0.002083327386    0.000000000000
 0.008408967861   -0.002291661422    0.000000000000
 0.008408963485   -0.002499993333    0.000000000000
 0.008408965059   -0.002708325237    0.000000000000
 0.008408964781   -0.002916659237    0.000000000000
 0.008408961433   -0.003124991494    0.000000000000
 0.008408961505   -0.003333323753    0.000000000000
 0.008408958540   -0.003541657814    0.000000000000
 0.008408953761   -0.003749989780    0.000000000000
 0.008408955016   -0.003958321794    0.000000000000
 0.008408954477   -0.004166655937    0.000000000000
 0.008408950970   -0.004374988385    0.000000000000
 0.008408950950   -0.004583320873    0.000000000000
 0.008408948000   -0.004791655218    0.000000000000
 0.008408943316   -0.004999987517    0.000000000000
 0.008408944764   -0.005208319921    0.000000000000
 0.008408944514   -0.005416654501    0.000000000000
 0.008408941364   -0.005624987419    0.000000000000
 0.008408941796   -0.005833320410    0.000000000000
 0.008408939312   -0.006041655256    0.000000000000
 0.008408935167   -0.006249988063    0.000000000000
 0.008408937125   -0.006458320947    0.000000000000
 0.008408937432   -0.006666655996    0.000000000000
 0.008408934787   -0.006874989338    0.000000000000
 0.008408935743   -0.007083322726    0.000000000000
 0.008408933706   -0.007291657897    0.000000000000
 0.008408929988   -0.007499990983    0.000000000000
 0.008408932329   -0.007708324141    0.000000000000
 0.008408933019   -0.007916659392    0.000000000000
 0.008408930856   -0.008124992957    0.000000000000
 0.008408932286   -0.008333326646    0.000000000000
 0.008408930814   -0.008541662050    0.000000000000
 0.008408927715   -0.008749995360    0.000000000000
 0.008408930521   -0.008958328860    0.000000000000
 0.008408931750   -0.009166664337    0.000000000000
 0.008408929772   -0.009374997864    0.000000000000
 0.008408931563   -0.009583331417    0.000000000000
 0.008408930363   -0.009791666588    0.000000000000
 0.000000000000   -0.010000000002    0.000000000000
 0.008058556348   -0.010000000005    0.000000000000
 0.007708182425   -0.010000000004    0.000000000000
 0.007357807962   -0.010000000004    0.000000000000
 0.007007434611   -0.010000000003    0.000000000000
 0.006657059745   -0.010000000004    0.000000000000
 0.006306686795   -0.010000000003    0.000000000000
 0.005956313600   -0.010000000004    0.000000000000
 0.005605939253   -0.010000000003    0.000000000000
 0.005255566789   -0.010000000004    0.000000000000
 0.004905194786   -0.010000000003    0.000000000000
 0.004554820829   -0.010000000004    0.000000000000
 0.004204448965   -0.010000000003    0.000000000000
 0.003854077573   -0.010000000004    0.000000000000
 0.003503704793   -0.010000000003    0.000000000000
 0.003153333963   -0.010000000004    0.000000000000
 0.002802963408   -0.010000000003    0.000000000000
 0.002452591398   -0.010000000004    0.000000000000
 0.002102221180   -0.010000000003    0.000000000000
 0.001751851348   -0.010000000004    0.000000000000
 0.001401480399   -0.010000000003    0.000000000000
 0.001051110161   -0.010000000004    0.000000000000
 0.000700740161   -0.010000000004    0.000000000000
 0.000350369931   -0.010000000005    0.000000000000
 0.000000000000   -0.009791668847    0.000000000000
 0.000000000000   -0.009583335383    0.000000000000
 0.000000000000   -0.009375004201    0.000000000000
 0.000000000000   -0.009166672929    0.000000000000
 0.000000000000   -0.008958340522    0.000000000000
 0.000000000000   -0.008750009011    0.000000000000
 0.000000000000   -0.008541677399    0.000000000000
 0.000000000000   -0.008333344665    0.000000000000
 0.000000000000   -0.008125012821    0.000000000000
 0.000000000000   -0.007916680888    0.000000000000
 0.000000000000   -0.007708347853    0.000000000000
 0.000000000000   -0.007500015699    0.000000000000
 0.000000000000   -0.007291683413    0.000000000000
 0.000000000000   -0.007083350017    0.000000000000
 0.000000000000   -0.006875017529    0.000000000000
 0.000000000000   -0.006666684949    0.000000000000
 0.000000000000   -0.006458351296    0.000000000000
 0.000000000000   -0.006250018554    0.000000000000
 0.000000000000   -0.006041685733    0.000000000000
 0.000000000000   -0.005833351822    0.000000000000
 0.000000000000   -0.005625018823    0.000000000000
 0.000000000000   -0.005416685737    0.000000000000
 0.000000000000   -0.005208351574    0.000000000000
 0.000000000000   -0.005000018337    0.000000000000
 0.000000000000   -0.004791685046    0.000000000000
 0.000000000000   -0.004583350695    0.000000000000
 0.000000000000   -0.004375017304    0.000000000000
 0.000000000000   -0.004166683857    0.000000000000
 0.000000000000   -0.003958349371    0.000000000000
 0.000000000000   -0.003750015832    0.000000000000
 0.000000000000   -0.003541682253    0.000000000000
 0.000000000000   -0.003333347625    0.000000000000
 0.000000000000   -0.003125013957    0.000000000000
 0.000000000000   -0.002916680245    0.000000000000
 0.000000000000   -0.002708345494    0.000000000000
 0.000000000000   -0.002500011704    0.000000000000
 0.000000000000   -0.002291677878    0.000000000000
 0.000000000000   -0.002083343017    0.000000000000
 0.000000000000   -0.001875009123    0.000000000000
 0.000000000000   -0.001666675198    0.000000000000
 0.000000000000   -0.001458340243    0.000000000000
 0.000000000000   -0.001250006260    0.000000000000
 0.000000000000   -0.001041672253    0.000000000000
 0.000000000000   -0.000833337526    0.000000000000
 0.000000000000   -0.000625003183    0.000000000000
 0.000000000000   -0.000416668830    0.000000000000
 0.000000000000   -0.000208334369    0.000000000000
 0.003506625065   -0.002056989157    0.000000000000
 0.004144974426   -0.002492826236    0.000000000000
 0.007661755990   -0.000311827261    0.000000000000
 0.007884500584   -0.009555697659    0.000000000000
 0.000747215187   -0.009688175349    0.000000000000
 0.000518824259   -0.000445340360    0.000000000000
 0.000517682142   -0.009552815496    0.000000000000
 0.000235870997   -0.009651418311    0.000000000000
 0.000586240696   -0.009859750071    0.000000000000
 0.000235870861   -0.009859749664    0.000000000000
 0.007656844259   -0.009692181802    0.000000000000
 0.007822683365   -0.009859748742    0.000000000000
 0.008173056943   -0.009651415310    0.000000000000
 0.008173056089   -0.009859749343    0.000000000000
 0.007891289814   -0.000447187867    0.000000000000
 0.008173103828   -0.000348583616    0.000000000000
 0.007822732092   -0.000140250802    0.000000000000
 0.008173103642   -0.000140250683    0.000000000000
 0.000749602499   -0.000307962255    0.000000000000
 0.000586249146   -0.000140251812    0.000000000000
 0.000235874256   -0.000348586182    0.000000000000
 0.000235874265   -0.000140251818    0.000000000000
 0.004237649349   -0.007083244009    0.000000000000
 0.004227146466   -0.006666391147    0.000000000000
 0.004227069097   -0.006249788160    0.000000000000
 0.004227117835   -0.005833305030    0.000000000000
 0.004227129487   -0.005416668704    0.000000000000
 0.004227134276   -0.005000007173    0.000000000000
 0.004227135514   -0.004583338405    0.000000000000
 0.004227134900   -0.004166653391    0.000000000000
 0.004227108881   -0.003749873169    0.000000000000
 0.004226948080   -0.003332528721    0.000000000000
 0.004223929618   -0.002915044010    0.000000000000
 0.004480418079   -0.002584541717    0.000000000000
 0.004508834399   -0.002805235070    0.000000000000
 0.004511712622   -0.003013804408    0.000000000000
 0.004514723560   -0.003228476697    0.000000000000
 0.004514861957   -0.003437391923    0.000000000000
 0.004514860689   -0.003645725085    0.000000000000
 0.004514882921   -0.003854155192    0.000000000000
 0.004514881567   -0.004062489254    0.000000000000
 0.004514885197   -0.004270838274    0.000000000000
 0.004514883734   -0.004479171247    0.000000000000
 0.004514882225   -0.004687507157    0.000000000000
 0.004514880657   -0.004895840000    0.000000000000
 0.004514879059   -0.005104172781    0.000000000000
 0.004514875745   -0.005312502511    0.000000000000
 0.004514874073   -0.005520831199    0.000000000000
 0.004514865644   -0.005729141846    0.000000000000
 0.004514857195   -0.005937449444    0.000000000000
 0.004514823501   -0.006145651998    0.000000000000
 0.004514781403   -0.006353828518    0.000000000000
 0.004514579565   -0.006561380026    0.000000000000
 0.004514698961   -0.006769806525    0.000000000000
 0.004513498241   -0.006973453040    0.000000000000
 0.004523878321   -0.007181879478    0.000000000000
 0.004518564247   -0.007360469055    0.000000000000
 0.004307785120   -0.007508492568    0.000000000000
 0.003968993635   -0.007414862264    0.000000000000
 0.003946772119   -0.007193688992    0.000000000000
 0.003936391987   -0.006985262630    0.000000000000
 0.003931331428   -0.006772217247    0.000000000000
 0.003931210268   -0.006563790799    0.000000000000
 0.003930125463   -0.006354196321    0.000000000000
 0.003930165754   -0.006146019787    0.000000000000
 0.003934144764   -0.005937478189    0.000000000000
 0.003934153051   -0.005729170556    0.000000000000
 0.003934154584   -0.005520837870    0.000000000000
 0.003934157772   -0.005312509126    0.000000000000
 0.003934159233   -0.005104176323    0.000000000000
 0.003934160644   -0.004895843458    0.000000000000
 0.003934162004   -0.004687509533    0.000000000000
 0.003934161637   -0.004479173547    0.000000000000
 0.003934162918   -0.004270840503    0.000000000000
 0.003934160804   -0.004062491400    0.000000000000
 0.003934162001   -0.003854157235    0.000000000000
 0.003934139597   -0.003645727009    0.000000000000
 0.003934140657   -0.003437393718    0.000000000000
 0.003934002064   -0.003228478364    0.000000000000
 0.003939051713   -0.003023231942    0.000000000000
 0.003936173340   -0.002814662474    0.000000000000
 0.003936214377   -0.002637486036    0.000000000000
 0.004404341246   -0.002370895417    0.000000000000
 0.004690766564   -0.002210605470    0.000000000000
 0.004768201140   -0.002683303188    0.000000000000
 0.004799628231   -0.003118667656    0.000000000000
 0.004802636032   -0.003541673969    0.000000000000
 0.004802633259   -0.003958340086    0.000000000000
 0.004802630305   -0.004375007039    0.000000000000
 0.004802627073   -0.004791672781    0.000000000000
 0.004802623699   -0.005208334280    0.000000000000
 0.004802613508   -0.005624975611    0.000000000000
 0.004802571233   -0.006041488792    0.000000000000
 0.004802333932   -0.006457243859    0.000000000000
 0.004800929667   -0.006868441947    0.000000000000
 0.004794413139   -0.007250678116    0.000000000000
 0.004578318220   -0.007577291261    0.000000000000
 0.004771002739   -0.007737328188    0.000000000000
 0.004028747651   -0.007631684407    0.000000000000
 0.003730589755   -0.007790699214    0.000000000000
 0.003667736314   -0.007316879848    0.000000000000
 0.003640455859   -0.006882662250    0.000000000000
 0.003634308684   -0.006460022414    0.000000000000
 0.003637201042   -0.006041885310    0.000000000000
 0.003641181409   -0.005625010979    0.000000000000
 0.003641184211   -0.005208344424    0.000000000000
 0.003641186834   -0.004791678607    0.000000000000
 0.003641189282   -0.004375011558    0.000000000000
 0.003641191569   -0.003958344261    0.000000000000
 0.003641193635   -0.003541677686    0.000000000000
 0.003646244164   -0.003128096857    0.000000000000
 0.003651336391   -0.002745674901    0.000000000000
 0.003860137416   -0.002423838613    0.000000000000
 0.003651484296   -0.002255222513    0.000000000000
 0.003924038296   -0.002080945541    0.000000000000
 0.004355324488   -0.002118889889    0.000000000000
 0.004990457639   -0.002101875622    0.000000000000
 0.005039474202   -0.002353880970    0.000000000000
 0.005053606963   -0.002576298271    0.000000000000
 0.005082024783   -0.002796990448    0.000000000000
 0.005091317160   -0.003011551594    0.000000000000
 0.005094327948   -0.003226223708    0.000000000000
 0.005095613147   -0.003437505791    0.000000000000
 0.005095611725   -0.003645838854    0.000000000000
 0.005095610271   -0.003854172885    0.000000000000
 0.005095608778   -0.004062505864    0.000000000000
 0.005095607223   -0.004270838784    0.000000000000
 0.005095605593   -0.004479171647    0.000000000000
 0.005095602205   -0.004687504467    0.000000000000
 0.005095600454   -0.004895837250    0.000000000000
 0.005095597001   -0.005104166992    0.000000000000
 0.005095593546   -0.005312496683    0.000000000000
 0.005095579973   -0.005520814321    0.000000000000
 0.005095573100   -0.005729125919    0.000000000000
 0.005095505659   -0.005937396498    0.000000000000
 0.005095470184   -0.006145599072    0.000000000000
 0.005095116897   -0.006353708647    0.000000000000
 0.005094915036   -0.006561260213    0.000000000000
 0.005093034791   -0.006769162779    0.000000000000
 0.005091832373   -0.006972809355    0.000000000000
 0.005087170522   -0.007181876964    0.000000000000
 0.005081854773   -0.007360466668    0.000000000000
 0.004981781921   -0.007589304682    0.000000000000
 0.004896848072   -0.007935102463    0.000000000000
 0.004493385915   -0.007923088799    0.000000000000
 0.004069381221   -0.007884330540    0.000000000000
 0.003425795965   -0.007899201128    0.000000000000
 0.003385162354   -0.007646555065    0.000000000000
 0.003371391753   -0.007425420805    0.000000000000
 0.003349171873   -0.007204247579    0.000000000000
 0.003341294251   -0.006988281262    0.000000000000
 0.003336233567   -0.006775235891    0.000000000000
 0.003334854296   -0.006563981453    0.000000000000
 0.003333767623   -0.006354385957    0.000000000000
 0.003333769040   -0.006146053393    0.000000000000
 0.003337747869   -0.005937511753    0.000000000000
 0.003337749238   -0.005729179067    0.000000000000
 0.003337750574   -0.005520845317    0.000000000000
 0.003337751861   -0.005312512501    0.000000000000
 0.003337753109   -0.005104179618    0.000000000000
 0.003337754315   -0.004895845669    0.000000000000
 0.003337755483   -0.004687512659    0.000000000000
 0.003337756610   -0.004479179588    0.000000000000
 0.003337757693   -0.004270845455    0.000000000000
 0.003337758721   -0.004062512253    0.000000000000
 0.003337759704   -0.003854178982    0.000000000000
 0.003337760623   -0.003645844640    0.000000000000
 0.003337761492   -0.003437511234    0.000000000000
 0.003342323328   -0.003228479759    0.000000000000
 0.003347372815   -0.003023233242    0.000000000000
 0.003366433312   -0.002812786643    0.000000000000
 0.003366475923   -0.002635611141    0.000000000000
 0.003442724233   -0.002399882306    0.000000000000
 0.003430621824   -0.001863392648    0.000000000000
 0.004210465335   -0.001920655620    0.000000000000
 0.004997106443   -0.001903576208    0.000000000000
 0.005345814091   -0.002046851778    0.000000000000
 0.005353297910   -0.002467568313    0.000000000000
 0.005376724510   -0.002904546570    0.000000000000
 0.005387301964   -0.003330389610    0.000000000000
 0.005388585629   -0.003750004639    0.000000000000
 0.005388582430   -0.004166670515    0.000000000000
 0.005388577330   -0.004583336124    0.000000000000
 0.005388572065   -0.004999998640    0.000000000000
 0.005388554863   -0.005416647004    0.000000000000
 0.005388473751   -0.005833236172    0.000000000000
 0.005388053016   -0.006249615377    0.000000000000
 0.005385817749   -0.006665627604    0.000000000000
 0.005379275701   -0.007082597842    0.000000000000
 0.005274539434   -0.007520504693    0.000000000000
 0.005225186655   -0.007961152448    0.000000000000
 0.004947569755   -0.008146912053    0.000000000000
 0.004195227969   -0.008082104570    0.000000000000
 0.003413857439   -0.008097401529    0.000000000000
 0.003068430182   -0.007953257291    0.000000000000
 0.003066597968   -0.007533922743    0.000000000000
 0.003044949649   -0.007096822199    0.000000000000
 0.003035692589   -0.006669600421    0.000000000000
 0.003034314536   -0.006250012384    0.000000000000
 0.003034317114   -0.005833346086    0.000000000000
 0.003034319552   -0.005416680509    0.000000000000
 0.003034321827   -0.005000013664    0.000000000000
 0.003034323951   -0.004583346559    0.000000000000
 0.003034325894   -0.004166680188    0.000000000000
 0.003034327629   -0.003750012545    0.000000000000
 0.003038890193   -0.003332647634    0.000000000000
 0.003062512377   -0.002913169478    0.000000000000
 0.003157822757   -0.002466993999    0.000000000000
 0.003158067781   -0.002037669604    0.000000000000
 0.003258517303   -0.001663100185    0.000000000000
 0.003607076323   -0.001682418822    0.000000000000
 0.003996252308   -0.001691868321    0.000000000000
 0.004427536870   -0.001729812754    0.000000000000
 0.004818939310   -0.001730854122    0.000000000000
 0.005174295870   -0.001675829446    0.000000000000
 0.005591045927   -0.001703168821    0.000000000000
 0.005644035008   -0.001945410017    0.000000000000
 0.005637386091   -0.002143710227    0.000000000000
 0.005651999844   -0.002362803352    0.000000000000
 0.005666132422   -0.002585220433    0.000000000000
 0.005673377938   -0.002801151477    0.000000000000
 0.005682670133   -0.003015712468    0.000000000000
 0.005683763602   -0.003226221457    0.000000000000
 0.005685048752   -0.003437503420    0.000000000000
 0.005685047300   -0.003645836372    0.000000000000
 0.005685045714   -0.003854170295    0.000000000000
 0.005685044000   -0.004062503171    0.000000000000
 0.005685040555   -0.004270835993    0.000000000000
 0.005685038773   -0.004479169769    0.000000000000
 0.005685036986   -0.004687501512    0.000000000000
 0.005685035171   -0.004895835233    0.000000000000
 0.005685031593   -0.005104164929    0.000000000000
 0.005685029620   -0.005312497591    0.000000000000
 0.005685015889   -0.005520816218    0.000000000000
 0.005685013976   -0.005729148825    0.000000000000
 0.005684946545   -0.005937419431    0.000000000000
 0.005684944749   -0.006145752050    0.000000000000
 0.005684591456   -0.006353861687    0.000000000000
 0.005684589655   -0.006562194335    0.000000000000
 0.005682709381   -0.006770097008    0.000000000000
 0.005677495937   -0.006980578732    0.000000000000
 0.005672832589   -0.007189647511    0.000000000000
 0.005649397229   -0.007407185428    0.000000000000
 0.005549324432   -0.007636023652    0.000000000000
 0.005527443155   -0.007859222616    0.000000000000
 0.005578164905   -0.008071033384    0.000000000000
 0.005523929582   -0.008320474480    0.000000000000
 0.005110569419   -0.008349477395    0.000000000000
 0.004782230834   -0.008323427291    0.000000000000
 0.004401381792   -0.008310967462    0.000000000000
 0.003977378487   -0.008272208978    0.000000000000
 0.003590568161   -0.008268767340    0.000000000000
 0.003233202455   -0.008322823372    0.000000000000
 0.002817910159   -0.008296840681    0.000000000000
 0.002764960442   -0.008054600879    0.000000000000
 0.002776900467   -0.007856400642    0.000000000000
 0.002765884365   -0.007639475525    0.000000000000
 0.002752113637   -0.007418341370    0.000000000000
 0.002743817096   -0.007202461108    0.000000000000
 0.002735939310   -0.006986494775    0.000000000000
 0.002732260895   -0.006773768357    0.000000000000
 0.002730881428   -0.006562512871    0.000000000000
 0.002730882671   -0.006354180315    0.000000000000
 0.002730883873   -0.006145846701    0.000000000000
 0.002730885045   -0.005937514019    0.000000000000
 0.002730886184   -0.005729181267    0.000000000000
 0.002730887283   -0.005520847441    0.000000000000
 0.002730888349   -0.005312514547    0.000000000000
 0.002730889376   -0.005104181585    0.000000000000
 0.002730890368   -0.004895847556    0.000000000000
 0.002730891318   -0.004687514459    0.000000000000
 0.002730892228   -0.004479181294    0.000000000000
 0.002730893086   -0.004270847060    0.000000000000
 0.002730893898   -0.004062513758    0.000000000000
 0.002730894657   -0.003854180392    0.000000000000
 0.002730895372   -0.003645845963    0.000000000000
 0.002730896046   -0.003437512478    0.000000000000
 0.002735457714   -0.003228480931    0.000000000000
 0.002746176419   -0.003017435327    0.000000000000
 0.002765236804   -0.002806988675    0.000000000000
 0.002787445518   -0.002589981968    0.000000000000
 0.002863695411   -0.002354253091    0.000000000000
 0.002870692220   -0.002136719339    0.000000000000
 0.002794688890   -0.001943122745    0.000000000000
 0.002833384183   -0.001699878801    0.000000000000
 0.003009838683   -0.001518904944    0.000000000000
 0.003824147867   -0.001491575939    0.000000000000
 0.004604726330   -0.001502066907    0.000000000000
 0.005412880571   -0.001530446809    0.000000000000
 0.005882617963   -0.001800026376    0.000000000000
 0.005950220600   -0.002261361451    0.000000000000
 0.005972079737   -0.002696386373    0.000000000000
 0.005980416930   -0.003122827289    0.000000000000
 0.005981507178   -0.003541669133    0.000000000000
 0.005981503886   -0.003958334805    0.000000000000
 0.005981500243   -0.004375001379    0.000000000000
 0.005981496547   -0.004791667825    0.000000000000
 0.005981492666   -0.005208333132    0.000000000000
 0.005981488702   -0.005624999428    0.000000000000
 0.005981484992   -0.006041665724    0.000000000000
 0.005981481424   -0.006458331033    0.000000000000
 0.005976266255   -0.006877146564    0.000000000000
 0.005947617604   -0.007305167407    0.000000000000
 0.005902302748   -0.007745904467    0.000000000000
 0.005826186201   -0.008218545742    0.000000000000
 0.005358590672   -0.008496989794    0.000000000000
 0.004564381367   -0.008513532744    0.000000000000
 0.003796723411   -0.008497630993    0.000000000000
 0.002994620917   -0.008468206455    0.000000000000
 0.002526378824   -0.008199984041    0.000000000000
 0.002462414603   -0.007740819189    0.000000000000
 0.002443101746   -0.007308013907    0.000000000000
 0.002431126550   -0.006879406201    0.000000000000
 0.002427450846   -0.006458347168    0.000000000000
 0.002427453034   -0.006041681868    0.000000000000
 0.002427455067   -0.005625015292    0.000000000000
 0.002427456963   -0.005208348429    0.000000000000
 0.002427458718   -0.004791682289    0.000000000000
 0.002427460307   -0.004375014870    0.000000000000
 0.002427461714   -0.003958347184    0.000000000000
 0.002427462959   -0.003541680259    0.000000000000
 0.002438180500   -0.003122300119    0.000000000000
 0.002471109474   -0.002694246761    0.000000000000
 0.002500316558   -0.002259706240    0.000000000000
 0.002546010239   -0.001798927482    0.000000000000
 0.002463130328   -0.001337402716    0.000000000000
 0.002830049811   -0.001338613428    0.000000000000
 0.003255182989   -0.001301834907    0.000000000000
 0.003634278483   -0.001298293519    0.000000000000
 0.004023454540   -0.001307743127    0.000000000000
 0.004400920116   -0.001311158700    0.000000000000
 0.004792322556   -0.001312200206    0.000000000000
 0.005169177342   -0.001315622713    0.000000000000
 0.005585927521   -0.001342961220    0.000000000000
 0.005942033858   -0.001336607711    0.000000000000
 0.006314801583   -0.001267127115    0.000000000000
 0.006202396726   -0.001488304424    0.000000000000
 0.006188864278   -0.001697598594    0.000000000000
 0.006241853104   -0.001939839593    0.000000000000
 0.006252015040   -0.002157268586    0.000000000000
 0.006266628626   -0.002376361460    0.000000000000
 0.006273820394   -0.002591286296    0.000000000000
 0.006281064175   -0.002807217152    0.000000000000
 0.006283849557   -0.003018659080    0.000000000000
 0.006284941250   -0.003229168020    0.000000000000
 0.006284939672   -0.003437500906    0.000000000000
 0.006284938073   -0.003645833691    0.000000000000
 0.006284936369   -0.003854167409    0.000000000000
 0.006284934570   -0.004062500134    0.000000000000
 0.006284932770   -0.004270832900    0.000000000000
 0.006284930881   -0.004479166673    0.000000000000
 0.006284928911   -0.004687499394    0.000000000000
 0.006284926979   -0.004895832029    0.000000000000
 0.006284925006   -0.005104165615    0.000000000000
 0.006284923011   -0.005312498233    0.000000000000
 0.006284921092   -0.005520830922    0.000000000000
 0.006284919166   -0.005729164649    0.000000000000
 0.006284917242   -0.005937497362    0.000000000000
 0.006284915440   -0.006145830028    0.000000000000
 0.006284913696   -0.006354163694    0.000000000000
 0.006284912018   -0.006562496440    0.000000000000
 0.006281814351   -0.006772269326    0.000000000000
 0.006276601055   -0.006982751310    0.000000000000
 0.006269463878   -0.007194488330    0.000000000000
 0.006246028622   -0.007412027381    0.000000000000
 0.006230923363   -0.007629516417    0.000000000000
 0.006209043869   -0.007852715558    0.000000000000
 0.006195457497   -0.008073276797    0.000000000000
 0.006141222258   -0.008322718210    0.000000000000
 0.006152479690   -0.008533983492    0.000000000000
 0.006277355602   -0.008754949580    0.000000000000
 0.005896826890   -0.008688954046    0.000000000000
 0.005539458098   -0.008679489402    0.000000000000
 0.005126097933   -0.008708491173    0.000000000000
 0.004751617330   -0.008711115035    0.000000000000
 0.004370768204   -0.008698655128    0.000000000000
 0.003998101310   -0.008691999027    0.000000000000
 0.003611290822   -0.008688555995    0.000000000000
 0.003237464276   -0.008683317931    0.000000000000
 0.002822171673   -0.008657335335    0.000000000000
 0.002466924002   -0.008663400195    0.000000000000
 0.002094158794   -0.008732880754    0.000000000000
 0.002206563172   -0.008511704566    0.000000000000
 0.002220102379   -0.008302411515    0.000000000000
 0.002167154365   -0.008060171767    0.000000000000
 0.002157042894   -0.007842743754    0.000000000000
 0.002146028285   -0.007625819694    0.000000000000
 0.002138849798   -0.007410895537    0.000000000000
 0.002130552954   -0.007195014300    0.000000000000
 0.002127694986   -0.006983573937    0.000000000000
 0.002124018020   -0.006770847493    0.000000000000
 0.002124019074   -0.006562514947    0.000000000000
 0.002124020095   -0.006354182329    0.000000000000
 0.002124021078   -0.006145848639    0.000000000000
 0.002124022010   -0.005937515882    0.000000000000
 0.002124022908   -0.005729183053    0.000000000000
 0.002124023769   -0.005520849156    0.000000000000
 0.002124024599   -0.005312516186    0.000000000000
 0.002124025398   -0.005104183148    0.000000000000
 0.002124026158   -0.004895849039    0.000000000000
 0.002124026883   -0.004687515860    0.000000000000
 0.002124027562   -0.004479182612    0.000000000000
 0.002124028204   -0.004270848296    0.000000000000
 0.002124028804   -0.004062514919    0.000000000000
 0.002124029369   -0.003854181482    0.000000000000
 0.002124029907   -0.003645846994    0.000000000000
 0.002124030418   -0.003437513458    0.000000000000
 0.002127722460   -0.003227939870    0.000000000000
 0.002138441032   -0.003016894228    0.000000000000
 0.002146184496   -0.002805074546    0.000000000000
 0.002168394764   -0.002588067791    0.000000000000
 0.002176696552   -0.002373412023    0.000000000000
 0.002183693246   -0.002155878213    0.000000000000
 0.002188431263   -0.001937991372    0.000000000000
 0.002227128146   -0.001694746370    0.000000000000
 0.002206808981   -0.001481576511    0.000000000000
 0.002085233753   -0.001263295666    0.000000000000
 0.002044304016   -0.001086432917    0.000000000000
 0.002708472966   -0.001120332655    0.000000000000
 0.003454487994   -0.001118002070    0.000000000000
 0.004211049128   -0.001117876361    0.000000000000
 0.004965371174   -0.001124714579    0.000000000000
 0.005698332375   -0.001121783659    0.000000000000
 0.006355217057   -0.001086611007    0.000000000000
 0.006615579791   -0.001238307691    0.000000000000
 0.006561630173   -0.001628117704    0.000000000000
 0.006558261193   -0.002054839683    0.000000000000
 0.006575614627   -0.002487193300    0.000000000000
 0.006585590215   -0.002913558891    0.000000000000
 0.006588372236   -0.003333332648    0.000000000000
 0.006588368660   -0.003749999079    0.000000000000
 0.006588365252   -0.004166665414    0.000000000000
 0.006588361407   -0.004583330905    0.000000000000
 0.006588357226   -0.004999997140    0.000000000000
 0.006588353512   -0.005416663388    0.000000000000
 0.006588349699   -0.005833328928    0.000000000000
 0.006588345922   -0.006249995382    0.000000000000
 0.006585246827   -0.006668101066    0.000000000000
 0.006575010454   -0.007089611236    0.000000000000
 0.006552769651   -0.007518838429    0.000000000000
 0.006524080034   -0.007956887867    0.000000000000
 0.006521751122   -0.008388714671    0.000000000000
 0.006581369591   -0.008778854096    0.000000000000
 0.006325716823   -0.008933824710    0.000000000000
 0.005664334085   -0.008900455490    0.000000000000
 0.004932484735   -0.008893614639    0.000000000000
 0.004185337205   -0.008889581214    0.000000000000
 0.003438841916   -0.008877685739    0.000000000000
 0.002709767341   -0.008878511675    0.000000000000
 0.002053743226   -0.008913395978    0.000000000000
 0.001793382430   -0.008761700254    0.000000000000
 0.001847337131   -0.008371892158    0.000000000000
 0.001850768141   -0.007945172208    0.000000000000
 0.001833479624   -0.007512820038    0.000000000000
 0.001823442888   -0.007086455525    0.000000000000
 0.001820587380   -0.006666682614    0.000000000000
 0.001820589159   -0.006250016320    0.000000000000
 0.001820590795   -0.005833349725    0.000000000000
 0.001820592288   -0.005416683856    0.000000000000
 0.001820593648   -0.005000016710    0.000000000000
 0.001820594865   -0.004583349282    0.000000000000
 0.001820595937   -0.004166682590    0.000000000000
 0.001820596893   -0.003750014670    0.000000000000
 0.001824289318   -0.003332107555    0.000000000000
 0.001835726367   -0.002910714250    0.000000000000
 0.001851771490   -0.002484239761    0.000000000000
 0.001864811183   -0.002051697108    0.000000000000
 0.001849231619   -0.001620639351    0.000000000000
 0.001787982649   -0.001230606690    0.000000000000
 0.001899952055   -0.000893571924    0.000000000000
 0.002197203191   -0.000926260633    0.000000000000
 0.002548263429   -0.000929555067    0.000000000000
 0.002915182950   -0.000930766059    0.000000000000
 0.003276180770   -0.000931580733    0.000000000000
 0.003655276307   -0.000928039240    0.000000000000
 0.004021186425   -0.000927113649    0.000000000000
 0.004398652034   -0.000930529462    0.000000000000
 0.004762777519   -0.000931272263    0.000000000000
 0.005139632350   -0.000934695071    0.000000000000
 0.005497476062   -0.000934458538    0.000000000000
 0.005853582343   -0.000928105110    0.000000000000
 0.006205986873   -0.000926523287    0.000000000000
 0.006506763735   -0.000897703628    0.000000000000
 0.006893375575   -0.000915260149    0.000000000000
 0.006923408241   -0.001145968172    0.000000000000
 0.006882994248   -0.001326484226    0.000000000000
 0.006880211881   -0.001534589131    0.000000000000
 0.006866677761   -0.001743881951    0.000000000000
 0.006866024207   -0.001954384679    0.000000000000
 0.006876185910   -0.002171813430    0.000000000000
 0.006881831979   -0.002386133272    0.000000000000
 0.006889023686   -0.002601058097    0.000000000000
 0.006889022516   -0.002809390926    0.000000000000
 0.006891806265   -0.003020831641    0.000000000000
 0.006891804719   -0.003229165282    0.000000000000
 0.006891802906   -0.003437497964    0.000000000000
 0.006891801013   -0.003645830700    0.000000000000
 0.006891799223   -0.003854164425    0.000000000000
 0.006891797549   -0.004062497128    0.000000000000
 0.006891795822   -0.004270829744    0.000000000000
 0.006891793882   -0.004479163290    0.000000000000
 0.006891791734   -0.004687495902    0.000000000000
 0.006891789579   -0.004895828596    0.000000000000
 0.006891787602   -0.005104162309    0.000000000000
 0.006891785823   -0.005312495035    0.000000000000
 0.006891784078   -0.005520827711    0.000000000000
 0.006891782214   -0.005729161358    0.000000000000
 0.006891780235   -0.005937494114    0.000000000000
 0.006891778361   -0.006145827002    0.000000000000
 0.006891776755   -0.006354160958    0.000000000000
 0.006891775455   -0.006562493973    0.000000000000
 0.006888678079   -0.006772266983    0.000000000000
 0.006885541969   -0.006982242987    0.000000000000
 0.006878404801   -0.007193981123    0.000000000000
 0.006872964674   -0.007405687382    0.000000000000
 0.006857861231   -0.007623177731    0.000000000000
 0.006851315077   -0.007836830103    0.000000000000
 0.006837730690   -0.008057391473    0.000000000000
 0.006836789924   -0.008269284782    0.000000000000
 0.006848045436   -0.008480550105    0.000000000000
 0.006850686932   -0.008690096509    0.000000000000
 0.006899048262   -0.008868971816    0.000000000000
 0.006869512482   -0.009098855380    0.000000000000
 0.006481420251   -0.009116740769    0.000000000000
 0.006177406116   -0.009092836148    0.000000000000
 0.005826693849   -0.009091035530    0.000000000000
 0.005469325134   -0.009081570784    0.000000000000
 0.005112361570   -0.009078960231    0.000000000000
 0.004737881096   -0.009081584028    0.000000000000
 0.004375309604   -0.009081035510    0.000000000000
 0.004002641042   -0.009074378252    0.000000000000
 0.003641064206   -0.009071771860    0.000000000000
 0.003267235287   -0.009066532772    0.000000000000
 0.002910621819   -0.009065835488    0.000000000000
 0.002555374111   -0.009071900189    0.000000000000
 0.002202972085   -0.009073482885    0.000000000000
 0.001902197704   -0.009102302134    0.000000000000
 0.001515588154   -0.009084745733    0.000000000000
 0.001485555524   -0.008854039237    0.000000000000
 0.001525970280   -0.008673524264    0.000000000000
 0.001528752318   -0.008465420417    0.000000000000
 0.001542291966   -0.008256128495    0.000000000000
 0.001542947300   -0.008045626526    0.000000000000
 0.001532836912   -0.007828198527    0.000000000000
 0.001527189786   -0.007613879417    0.000000000000
 0.001520011559   -0.007398955239    0.000000000000
 0.001520012320   -0.007190622944    0.000000000000
 0.001517154729   -0.006979182587    0.000000000000
 0.001517155475   -0.006770849119    0.000000000000
 0.001517156238   -0.006562516553    0.000000000000
 0.001517156976   -0.006354183891    0.000000000000
 0.001517157704   -0.006145850141    0.000000000000
 0.001517158402   -0.005937517311    0.000000000000
 0.001517159064   -0.005729184411    0.000000000000
 0.001517159699   -0.005520850440    0.000000000000
 0.001517160293   -0.005312517402    0.000000000000
 0.001517160859   -0.005104184295    0.000000000000
 0.001517161388   -0.004895850119    0.000000000000
 0.001517161884   -0.004687516875    0.000000000000
 0.001517162348   -0.004479183566    0.000000000000
 0.001517162783   -0.004270849195    0.000000000000
 0.001517163194   -0.004062515768    0.000000000000
 0.001517163590   -0.003854182289    0.000000000000
 0.001517163968   -0.003645847763    0.000000000000
 0.001517164338   -0.003437514193    0.000000000000
 0.001520856910   -0.003227940573    0.000000000000
 0.001520857254   -0.003019606918    0.000000000000
 0.001528600748   -0.002807787204    0.000000000000
 0.001533831629   -0.002596247453    0.000000000000
 0.001542133800   -0.002381591650    0.000000000000
 0.001544858103   -0.002169225824    0.000000000000
 0.001549595842   -0.001951338940    0.000000000000
 0.001547794555   -0.001738893050    0.000000000000
 0.001527475972   -0.001525723139    0.000000000000
 0.001522698016   -0.001317259214    0.000000000000
 0.001481768231   -0.001140397428    0.000000000000
 0.001514633946   -0.000910186648    0.000000000000
 0.001667534123   -0.000750014350    0.000000000000
 0.002403911500   -0.000736694116    0.000000000000
 0.003115971278   -0.000740803299    0.000000000000
 0.003842879253   -0.000740692485    0.000000000000
 0.004572914884   -0.000740509809    0.000000000000
 0.005294884128   -0.000741016322    0.000000000000
 0.006005130565   -0.000739198057    0.000000000000
 0.006744145606   -0.000755172946    0.000000000000
 0.007160791847   -0.001003437693    0.000000000000
 0.007188041887   -0.001442249596    0.000000000000
 0.007184603878   -0.001860855855    0.000000000000
 0.007189595060   -0.002285678123    0.000000000000
 0.007195239872   -0.002708330957    0.000000000000
 0.007195236703   -0.003124997121    0.000000000000
 0.007195233552   -0.003541663206    0.000000000000
 0.007195229926   -0.003958328834    0.000000000000
 0.007195225915   -0.004374994859    0.000000000000
 0.007195222184   -0.004791660919    0.000000000000
 0.007195218290   -0.005208326657    0.000000000000
 0.007195214370   -0.005624992952    0.000000000000
 0.007195211130   -0.006041659468    0.000000000000
 0.007195208124   -0.006458325844    0.000000000000
 0.007192070514   -0.006876635903    0.000000000000
 0.007183496469   -0.007298320203    0.000000000000
 0.007171512009   -0.007723680310    0.000000000000
 0.007164024843   -0.008149226963    0.000000000000
 0.007165724199   -0.008570666665    0.000000000000
 0.007138828307   -0.009010098009    0.000000000000
 0.006721200092   -0.009257866817    0.000000000000
 0.005982397134   -0.009273950602    0.000000000000
 0.005274721387   -0.009269540290    0.000000000000
 0.004555184828   -0.009266381125    0.000000000000
 0.003831034752   -0.009263225065    0.000000000000
 0.003112842171   -0.009259921409    0.000000000000
 0.002403826616   -0.009260806674    0.000000000000
 0.001664817130   -0.009244831614    0.000000000000
 0.001248175451   -0.008996568674    0.000000000000
 0.001220924573   -0.008557759464    0.000000000000
 0.001224361700   -0.008139154757    0.000000000000
 0.001219369637   -0.007714333665    0.000000000000
 0.001213722847   -0.007291682247    0.000000000000
 0.001213724067   -0.006875016473    0.000000000000
 0.001213725247   -0.006458350325    0.000000000000
 0.001213726406   -0.006041684790    0.000000000000
 0.001213727496   -0.005625017930    0.000000000000
 0.001213728465   -0.005208350794    0.000000000000
 0.001213729300   -0.004791684389    0.000000000000
 0.001213730023   -0.004375016726    0.000000000000
 0.001213730673   -0.003958348841    0.000000000000
 0.001213731282   -0.003541681764    0.000000000000
 0.001213731853   -0.003125013512    0.000000000000
 0.001218962942   -0.002705140082    0.000000000000
 0.001226918002   -0.002281233478    0.000000000000
 0.001227840910   -0.001856421730    0.000000000000
 0.001221261749   -0.001435512882    0.000000000000
 0.001249349611   -0.000996839343    0.000000000000
 0.001504046702   -0.000565506023    0.000000000000
 0.001889365355   -0.000548891351    0.000000000000
 0.002242887840   -0.000549838658    0.000000000000
 0.002593948102   -0.000553133257    0.000000000000
 0.002946419315   -0.000553965334    0.000000000000
 0.003307417160   -0.000554780094    0.000000000000
 0.003664089315   -0.000553812250    0.000000000000
 0.004029999451   -0.000552886785    0.000000000000
 0.004385642102   -0.000552699495    0.000000000000
 0.004749767639   -0.000553442490    0.000000000000
 0.005102678846   -0.000553765904    0.000000000000
 0.005460522515   -0.000553529597    0.000000000000
 0.005814896467   -0.000554796546    0.000000000000
 0.006167301026   -0.000553214675    0.000000000000
 0.006525884490   -0.000557663600    0.000000000000
 0.006912498180   -0.000575220418    0.000000000000
 0.007258517643   -0.000557941484    0.000000000000
 0.007488052975   -0.000693302116    0.000000000000
 0.007464171594   -0.000899520695    0.000000000000
 0.007494204460   -0.001130228021    0.000000000000
 0.007494644216   -0.001341899831    0.000000000000
 0.007491861395   -0.001550003504    0.000000000000
 0.007492216657   -0.001760407084    0.000000000000
 0.007491561411   -0.001970909774    0.000000000000
 0.007493027167   -0.002181511337    0.000000000000
 0.007498673576   -0.002395829968    0.000000000000
 0.007498672236   -0.002604163816    0.000000000000
 0.007498670584   -0.002812496439    0.000000000000
 0.007498668711   -0.003020828943    0.000000000000
 0.007498667095   -0.003229162535    0.000000000000
 0.007498665747   -0.003437495010    0.000000000000
 0.007498664191   -0.003645827577    0.000000000000
 0.007498662370   -0.003854161348    0.000000000000
 0.007498660277   -0.004062493918    0.000000000000
 0.007498658032   -0.004270826401    0.000000000000
 0.007498656097   -0.004479160004    0.000000000000
 0.007498654512   -0.004687492528    0.000000000000
 0.007498652794   -0.004895825179    0.000000000000
 0.007498650901   -0.005104159078    0.000000000000
 0.007498648820   -0.005312491817    0.000000000000
 0.007498646693   -0.005520824516    0.000000000000
 0.007498644970   -0.005729158383    0.000000000000
 0.007498643705   -0.005937491217    0.000000000000
 0.007498642400   -0.006145824222    0.000000000000
 0.007498641005   -0.006354158504    0.000000000000
 0.007498639491   -0.006562491649    0.000000000000
 0.007498637963   -0.006770824760    0.000000000000
 0.007495502007   -0.006980802046    0.000000000000
 0.007495501367   -0.007189135279    0.000000000000
 0.007490063465   -0.007400842674    0.000000000000
 0.007486446828   -0.007611738307    0.000000000000
 0.007479902058   -0.007825390772    0.000000000000
 0.007478945833   -0.008034939134    0.000000000000
 0.007478003457   -0.008246832621    0.000000000000
 0.007475869069   -0.008457547056    0.000000000000
 0.007478510898   -0.008667093621    0.000000000000
 0.007471031690   -0.008880308449    0.000000000000
 0.007441494045   -0.009110193141    0.000000000000
 0.007470553536   -0.009315939680    0.000000000000
 0.007242899195   -0.009452424061    0.000000000000
 0.006896054478   -0.009438232190    0.000000000000
 0.006507963784   -0.009456117439    0.000000000000
 0.006148494009   -0.009457024825    0.000000000000
 0.005797781590   -0.009455223950    0.000000000000
 0.005447071015   -0.009454680266    0.000000000000
 0.005090107730   -0.009452069612    0.000000000000
 0.004736289478   -0.009453042701    0.000000000000
 0.004373718201   -0.009452494128    0.000000000000
 0.004019130309   -0.009450418496    0.000000000000
 0.003657551317   -0.009447811160    0.000000000000
 0.003305046190   -0.009447170667    0.000000000000
 0.002948430738   -0.009446473076    0.000000000000
 0.002594059188   -0.009445206541    0.000000000000
 0.002241657513   -0.009446788856    0.000000000000
 0.001883076992   -0.009442340165    0.000000000000
 0.001496467108   -0.009424783791    0.000000000000
 0.001150448521   -0.009442062792    0.000000000000
 0.000920915423   -0.009306702910    0.000000000000
 0.000944796736   -0.009100485341    0.000000000000
 0.000914763767   -0.008869778900    0.000000000000
 0.000914323740   -0.008658108247    0.000000000000
 0.000917105639   -0.008450005516    0.000000000000
 0.000916750695   -0.008239602691    0.000000000000
 0.000917405738   -0.008029100760    0.000000000000
 0.000915938891   -0.007818499728    0.000000000000
 0.000910291495   -0.007604181623    0.000000000000
 0.000910292004   -0.007395848394    0.000000000000
 0.000910292493   -0.007187516080    0.000000000000
 0.000910292956   -0.006979183676    0.000000000000
 0.000910293399   -0.006770850183    0.000000000000
 0.000910293824   -0.006562517593    0.000000000000
 0.000910294254   -0.006354184911    0.000000000000
 0.000910294681   -0.006145851134    0.000000000000
 0.000910295112   -0.005937518271    0.000000000000
 0.000910295533   -0.005729185325    0.000000000000
 0.000910295930   -0.005520851303    0.000000000000
 0.000910296304   -0.005312518210    0.000000000000
 0.000910296640   -0.005104185049    0.000000000000
 0.000910296951   -0.004895850821    0.000000000000
 0.000910297231   -0.004687517531    0.000000000000
 0.000910297496   -0.004479184182    0.000000000000
 0.000910297743   -0.004270849779    0.000000000000
 0.000910297986   -0.004062516324    0.000000000000
 0.000910298219   -0.003854182822    0.000000000000
 0.000910298449   -0.003645848274    0.000000000000
 0.000910298669   -0.003437514681    0.000000000000
 0.000910298885   -0.003229181044    0.000000000000
 0.000910299091   -0.003020846366    0.000000000000
 0.000910299291   -0.002812512648    0.000000000000
 0.000915530041   -0.002600972876    0.000000000000
 0.000915530222   -0.002392639080    0.000000000000
 0.000918254406   -0.002180273230    0.000000000000
 0.000919837984   -0.001969192351    0.000000000000
 0.000918036598   -0.001756746435    0.000000000000
 0.000917320292   -0.001548029505    0.000000000000
 0.000912542262   -0.001339566552    0.000000000000
 0.000914341902   -0.001125131546    0.000000000000
 0.000947207725   -0.000894921335    0.000000000000
 0.000924057832   -0.000688403132    0.000000000000
 0.001154835899   -0.000551025017    0.000000000000
 0.001376667300   -0.000349902006    0.000000000000
 0.002079400283   -0.000365330469    0.000000000000
 0.002785394002   -0.000367109922    0.000000000000
 0.003494537387   -0.000366974238    0.000000000000
 0.004206852221   -0.000365819331    0.000000000000
 0.004915406092   -0.000365955641    0.000000000000
 0.005622692956   -0.000367546229    0.000000000000
 0.006335651952   -0.000373262055    0.000000000000
 0.007040258610   -0.000360432241    0.000000000000
 0.007615813904   -0.000478513708    0.000000000000
 0.007821467041   -0.000820093223    0.000000000000
 0.007798025823   -0.001237983232    0.000000000000
 0.007798818746   -0.001660057304    0.000000000000
 0.007800639711   -0.002081061666    0.000000000000
 0.007802104633   -0.002499995732    0.000000000000
 0.007802100789   -0.002916661753    0.000000000000
 0.007802097515   -0.003333326921    0.000000000000
 0.007802094893   -0.003749992895    0.000000000000
 0.007802090262   -0.004166658920    0.000000000000
 0.007802086477   -0.004583324232    0.000000000000
 0.007802083662   -0.004999990520    0.000000000000
 0.007802079207   -0.005416657041    0.000000000000
 0.007802075996   -0.005833323041    0.000000000000
 0.007802074106   -0.006249990165    0.000000000000
 0.007802070791   -0.006666657569    0.000000000000
 0.007802068797   -0.007083324410    0.000000000000
 0.007798453900   -0.007502553288    0.000000000000
 0.007793880522   -0.007922997246    0.000000000000
 0.007790789988   -0.008343259438    0.000000000000
 0.007781177074   -0.008767188787    0.000000000000
 0.007802756808   -0.009186151191    0.000000000000
 0.007604162166   -0.009528382429    0.000000000000
 0.007029663044   -0.009650674759    0.000000000000
 0.006323348099   -0.009637390088    0.000000000000
 0.005613167817   -0.009637753289    0.000000000000
 0.004908639190   -0.009638182810    0.000000000000
 0.004200234868   -0.009637080224    0.000000000000
 0.003493139907   -0.009634363845    0.000000000000
 0.002786261510   -0.009632455524    0.000000000000
 0.002073307927   -0.009626740045    0.000000000000
 0.001368707617   -0.009639570412    0.000000000000
 0.000793155873   -0.009521489484    0.000000000000
 0.000587503882   -0.009179912121    0.000000000000
 0.000610944912   -0.008762023886    0.000000000000
 0.000610149838   -0.008339951425    0.000000000000
 0.000608327749   -0.007918948630    0.000000000000
 0.000606861113   -0.007500015391    0.000000000000
 0.000606861786   -0.007083349742    0.000000000000
 0.000606862368   -0.006666684716    0.000000000000
 0.000606862926   -0.006250018334    0.000000000000
 0.000606863500   -0.005833351600    0.000000000000
 0.000606864043   -0.005416685529    0.000000000000
 0.000606864497   -0.005000018166    0.000000000000
 0.000606864866   -0.004583350555    0.000000000000
 0.000606865195   -0.004166683730    0.000000000000
 0.000606865507   -0.003750015713    0.000000000000
 0.000606865803   -0.003333347514    0.000000000000
 0.000606866080   -0.002916680144    0.000000000000
 0.000606866333   -0.002500011614    0.000000000000
 0.000608449976   -0.002080596926    0.000000000000
 0.000609317148   -0.001660799102    0.000000000000
 0.000610400402   -0.001237648146    0.000000000000
 0.000589050088   -0.000816695511    0.000000000000
 0.000796678233   -0.000472799081    0.000000000000
 0.000864103129   -0.000167710542    0.000000000000
 0.001214478136   -0.000167710530    0.000000000000
 0.001563688788   -0.000182191574    0.000000000000
 0.001914064371   -0.000182191549    0.000000000000
 0.002267586874   -0.000183138919    0.000000000000
 0.002617960975   -0.000183138882    0.000000000000
 0.002970432193   -0.000183971036    0.000000000000
 0.003320806115   -0.000183970991    0.000000000000
 0.003677478275   -0.000183003247    0.000000000000
 0.004027853696   -0.000183003204    0.000000000000
 0.004383494705   -0.000182816128    0.000000000000
 0.004733869857   -0.000182816040    0.000000000000
 0.005086781012   -0.000183139600    0.000000000000
 0.005437154253   -0.000183139580    0.000000000000
 0.005791530031   -0.000184406667    0.000000000000
 0.006141902907   -0.000184406515    0.000000000000
 0.006500487730   -0.000188855461    0.000000000000
 0.006850860243   -0.000188855654    0.000000000000
 0.007196882243   -0.000171576679    0.000000000000
 0.007547255034   -0.000171576399    0.000000000000
 0.008127162343   -0.000515269630    0.000000000000
 0.008127161520   -0.000723602786    0.000000000000
 0.008103278921   -0.000929821986    0.000000000000
 0.008103277722   -0.001138154422    0.000000000000
 0.008103717742   -0.001349825756    0.000000000000
 0.008103717407   -0.001558158291    0.000000000000
 0.008104073215   -0.001768561359    0.000000000000
 0.008104072172   -0.001976893786    0.000000000000
 0.008105537265   -0.002187495855    0.000000000000
 0.008105535590   -0.002395828377    0.000000000000
 0.008105534206   -0.002604160701    0.000000000000
 0.008105533124   -0.002812493204    0.000000000000
 0.008105531757   -0.003020826230    0.000000000000
 0.008105530117   -0.003229159606    0.000000000000
 0.008105528182   -0.003437492638    0.000000000000
 0.008105526042   -0.003645825158    0.000000000000
 0.008105524229   -0.003854157507    0.000000000000
 0.008105522806   -0.004062490073    0.000000000000
 0.008105521162   -0.004270823193    0.000000000000
 0.008105519337   -0.004479156710    0.000000000000
 0.008105517284   -0.004687489922    0.000000000000
 0.008105515124   -0.004895822676    0.000000000000
 0.008105513371   -0.005104155306    0.000000000000
 0.008105512115   -0.005312488203    0.000000000000
 0.008105510732   -0.005520821704    0.000000000000
 0.008105509259   -0.005729155638    0.000000000000
 0.008105507646   -0.005937489306    0.000000000000
 0.008105505972   -0.006145822525    0.000000000000
 0.008105504770   -0.006354155633    0.000000000000
 0.008105504062   -0.006562488992    0.000000000000
 0.008105503266   -0.006770822945    0.000000000000
 0.008105502352   -0.006979157299    0.000000000000
 0.008105501313   -0.007187491359    0.000000000000
 0.008105500151   -0.007395824924    0.000000000000
 0.008101885242   -0.007606719335    0.000000000000
 0.008101884988   -0.007815052938    0.000000000000
 0.008100927672   -0.008024602092    0.000000000000
 0.008100927181   -0.008232936653    0.000000000000
 0.008098792461   -0.008443650930    0.000000000000
 0.008098791893   -0.008651984726    0.000000000000
 0.008091314414   -0.008865199453    0.000000000000
 0.008091314723   -0.009073533325    0.000000000000
 0.008120374680   -0.009279280700    0.000000000000
 0.008120374658   -0.009487614286    0.000000000000
 0.007542344800   -0.009832432908    0.000000000000
 0.007191971379   -0.009832433335    0.000000000000
 0.006845126508   -0.009818241400    0.000000000000
 0.006494751474   -0.009818241626    0.000000000000
 0.006135283223   -0.009819148413    0.000000000000
 0.005784908747   -0.009819148454    0.000000000000
 0.005434198193   -0.009818604636    0.000000000000
 0.005083825922   -0.009818604954    0.000000000000
 0.004730008094   -0.009819577672    0.000000000000
 0.004379635823   -0.009819578030    0.000000000000
 0.004025048050   -0.009817502095    0.000000000000
 0.003674676624   -0.009817502359    0.000000000000
 0.003322169646   -0.009816861491    0.000000000000
 0.002971799129   -0.009816861644    0.000000000000
 0.002617425859   -0.009815594985    0.000000000000
 0.002267055495   -0.009815594902    0.000000000000
 0.001908473341   -0.009811146222    0.000000000000
 0.001558103229   -0.009811146218    0.000000000000
 0.001212084745   -0.009828425215    0.000000000000
 0.000861714425   -0.009828425329    0.000000000000
 0.000281811228   -0.009484732648    0.000000000000
 0.000281811292   -0.009276401254    0.000000000000
 0.000305692494   -0.009070183797    0.000000000000
 0.000305692598   -0.008861852275    0.000000000000
 0.000305252280   -0.008650180691    0.000000000000
 0.000305252440   -0.008441848980    0.000000000000
 0.000304897234   -0.008231447194    0.000000000000
 0.000304897370   -0.008023115301    0.000000000000
 0.000303430361   -0.007812514319    0.000000000000
 0.000303430540   -0.007604182213    0.000000000000
 0.000303430738   -0.007395848991    0.000000000000
 0.000303430908   -0.007187516658    0.000000000000
 0.000303431063   -0.006979184224    0.000000000000
 0.000303431208   -0.006770850696    0.000000000000
 0.000303431341   -0.006562518084    0.000000000000
 0.000303431480   -0.006354185386    0.000000000000
 0.000303431618   -0.006145851605    0.000000000000
 0.000303431760   -0.005937518736    0.000000000000
 0.000303431907   -0.005729185780    0.000000000000
 0.000303432044   -0.005520851739    0.000000000000
 0.000303432173   -0.005312518617    0.000000000000
 0.000303432289   -0.005104185423    0.000000000000
 0.000303432387   -0.004895851164    0.000000000000
 0.000303432482   -0.004687517847    0.000000000000
 0.000303432560   -0.004479184479    0.000000000000
 0.000303432646   -0.004270850060    0.000000000000
 0.000303432721   -0.004062516594    0.000000000000
 0.000303432802   -0.003854183081    0.000000000000
 0.000303432876   -0.003645848523    0.000000000000
 0.000303432952   -0.003437514919    0.000000000000
 0.000303433023   -0.003229181272    0.000000000000
 0.000303433093   -0.003020846583    0.000000000000
 0.000303433159   -0.002812512852    0.000000000000
 0.000303433222   -0.002604179082    0.000000000000
 0.000303433283   -0.002395844275    0.000000000000
 0.000303433339   -0.002187510433    0.000000000000
 0.000305016808   -0.001976429544    0.000000000000
 0.000305016858   -0.001768095635    0.000000000000
 0.000304300461   -0.001559378694    0.000000000000
 0.000304300504   -0.001351044726    0.000000000000
 0.000306100069   -0.001136609704    0.000000000000
 0.000306100101   -0.000928275689    0.000000000000
 0.000282949991   -0.000721757366    0.000000000000
 0.000282950004   -0.000513423017    0.000000000000
 0.000565900162   -0.000610177288    0.000000000000
 0.000612199999   -0.001023214118    0.000000000000
 0.000608600793   -0.001452082151    0.000000000000
 0.000610033495   -0.001869516024    0.000000000000
 0.000606866450   -0.002291677793    0.000000000000
 0.000606866209   -0.002708345398    0.000000000000
 0.000606865944   -0.003125013849    0.000000000000
 0.000606865657   -0.003541682134    0.000000000000
 0.000606865353   -0.003958349243    0.000000000000
 0.000606865034   -0.004375017165    0.000000000000
 0.000606864691   -0.004791684886    0.000000000000
 0.000606864282   -0.005208351379    0.000000000000
 0.000606863778   -0.005625018603    0.000000000000
 0.000606863211   -0.006041685510    0.000000000000
 0.000606862649   -0.006458351067    0.000000000000
 0.000606862090   -0.006875017273    0.000000000000
 0.000606861464   -0.007291683115    0.000000000000
 0.000606860750   -0.007708347570    0.000000000000
 0.000609794777   -0.008129548584    0.000000000000
 0.000610504762   -0.008550353183    0.000000000000
 0.000611385126   -0.008973694512    0.000000000000
 0.000563622817   -0.009386129705    0.000000000000
 0.001022689103   -0.009656849388    0.000000000000
 0.001714725673   -0.009622291444    0.000000000000
 0.002431890213   -0.009631188795    0.000000000000
 0.003140634900   -0.009633723346    0.000000000000
 0.003845646891   -0.009635004537    0.000000000000
 0.004554821213   -0.009639155635    0.000000000000
 0.005262457442   -0.009637210567    0.000000000000
 0.005963880146   -0.009638297190    0.000000000000
 0.006682818131   -0.009636482789    0.000000000000
 0.007376508094   -0.009664866583    0.000000000000
 0.007831816867   -0.009391896950    0.000000000000
 0.007773697418   -0.008980404642    0.000000000000
 0.007788655769   -0.008553973936    0.000000000000
 0.007792924871   -0.008132545835    0.000000000000
 0.007794836779   -0.007713447865    0.000000000000
 0.007802068290   -0.007291658725    0.000000000000
 0.007802069940   -0.006874990957    0.000000000000
 0.007802072298   -0.006458323431    0.000000000000
 0.007802074898   -0.006041656963    0.000000000000
 0.007802077747   -0.005624989996    0.000000000000
 0.007802081296   -0.005208323340    0.000000000000
 0.007802084950   -0.004791657748    0.000000000000
 0.007802088563   -0.004374991555    0.000000000000
 0.007802092491   -0.003958325492    0.000000000000
 0.007802096130   -0.003541660303    0.000000000000
 0.007802099385   -0.003124994339    0.000000000000
 0.007802102662   -0.002708328342    0.000000000000
 0.007802105389   -0.002291663108    0.000000000000
 0.007799172818   -0.001870460996    0.000000000000
 0.007798465149   -0.001449654793    0.000000000000
 0.007797585365   -0.001026311772    0.000000000000
 0.007845349421   -0.000613874436    0.000000000000
 0.007386278588   -0.000343153085    0.000000000000
 0.006694236984   -0.000377711070    0.000000000000
 0.005977066892   -0.000368813194    0.000000000000
 0.005268317202   -0.000366279158    0.000000000000
 0.004562494831   -0.000365632181    0.000000000000
 0.003851211175   -0.000366006446    0.000000000000
 0.003137865178   -0.000367942032    0.000000000000
 0.002432922745   -0.000366277800    0.000000000000
 0.001725877754   -0.000364383024    0.000000000000
 0.001027456468   -0.000335420972    0.000000000000
 0.001282215457   -0.000766629037    0.000000000000
 0.001216483915   -0.001227049930    0.000000000000
 0.001226039564   -0.001643975810    0.000000000000
 0.001229642237   -0.002068867619    0.000000000000
 0.001224193751   -0.002493599300    0.000000000000
 0.001213732121   -0.002916679823    0.000000000000
 0.001213731572   -0.003333347158    0.000000000000
 0.001213730982   -0.003750015324    0.000000000000
 0.001213730355   -0.004166683307    0.000000000000
 0.001213729673   -0.004583350087    0.000000000000
 0.001213728899   -0.005000017623    0.000000000000
 0.001213727998   -0.005416684892    0.000000000000
 0.001213726964   -0.005833350893    0.000000000000
 0.001213725832   -0.006250017603    0.000000000000
 0.001213724662   -0.006666683951    0.000000000000
 0.001213723470   -0.007083348901    0.000000000000
 0.001213722213   -0.007500014510    0.000000000000
 0.001225016900   -0.007928651738    0.000000000000
 0.001223706521   -0.008349656682    0.000000000000
 0.001218142578   -0.008765863144    0.000000000000
 0.001278208286   -0.009227275152    0.000000000000
 0.002051426624   -0.009262387986    0.000000000000
 0.002756228717   -0.009259224037    0.000000000000
 0.003469457627   -0.009260618964    0.000000000000
 0.004192613436   -0.009265832571    0.000000000000
 0.004917757935   -0.009266929568    0.000000000000
 0.005631684934   -0.009272150831    0.000000000000
 0.006333109581   -0.009275751271    0.000000000000
 0.007109292456   -0.009239982673    0.000000000000
 0.007168365832   -0.008780213269    0.000000000000
 0.007163084226   -0.008361120160    0.000000000000
 0.007164965708   -0.007937332797    0.000000000000
 0.007178058282   -0.007510027729    0.000000000000
 0.007188936325   -0.007086612853    0.000000000000
 0.007195206720   -0.006666660003    0.000000000000
 0.007195209517   -0.006249992617    0.000000000000
 0.007195212725   -0.005833325505    0.000000000000
 0.007195216323   -0.005416660447    0.000000000000
 0.007195220173   -0.004999993771    0.000000000000
 0.007195224078   -0.004583327210    0.000000000000
 0.007195227964   -0.004166662512    0.000000000000
 0.007195231719   -0.003749996023    0.000000000000
 0.007195235194   -0.003333329501    0.000000000000
 0.007195238358   -0.002916664720    0.000000000000
 0.007195241165   -0.002499998042    0.000000000000
 0.007183950399   -0.002071359318    0.000000000000
 0.007185259207   -0.001650353385    0.000000000000
 0.007190824398   -0.001234144669    0.000000000000
 0.007130757196   -0.000772729455    0.000000000000
 0.006357533514   -0.000737616123    0.000000000000
 0.005652725975   -0.000740779911    0.000000000000
 0.004937040369   -0.000741252747    0.000000000000
 0.004208787622   -0.000739766949    0.000000000000
 0.003476969069   -0.000741618005    0.000000000000
 0.002754971715   -0.000739988572    0.000000000000
 0.002052852897   -0.000733399639    0.000000000000
 0.001747052879   -0.001053743915    0.000000000000
 0.001828912389   -0.001407469447    0.000000000000
 0.001869549131   -0.001833810226    0.000000000000
 0.001860073208   -0.002269583956    0.000000000000
 0.001843469755   -0.002698895529    0.000000000000
 0.001827982964   -0.003122533929    0.000000000000
 0.001820597341   -0.003541681136    0.000000000000
 0.001820596426   -0.003958348154    0.000000000000
 0.001820595417   -0.004375015966    0.000000000000
 0.001820594275   -0.004791683529    0.000000000000
 0.001820592987   -0.005208349817    0.000000000000
 0.001820591562   -0.005625016822    0.000000000000
 0.001820589999   -0.006041683554    0.000000000000
 0.001820588284   -0.006458349008    0.000000000000
 0.001820586462   -0.006875015129    0.000000000000
 0.001826301014   -0.007297896829    0.000000000000
 0.001840656544   -0.007727744173    0.000000000000
 0.001860878045   -0.008162600170    0.000000000000
 0.001833797992   -0.008581185123    0.000000000000
 0.001752968752   -0.008942216257    0.000000000000
 0.002354519717   -0.008884576444    0.000000000000
 0.003065015100   -0.008872447897    0.000000000000
 0.003812670435   -0.008882924069    0.000000000000
 0.004558004129   -0.008896237415    0.000000000000
 0.005306967088   -0.008890990743    0.000000000000
 0.006021702840   -0.008909920148    0.000000000000
 0.006629732616   -0.008957729279    0.000000000000
 0.006533008420   -0.008599978981    0.000000000000
 0.006510493833   -0.008177449300    0.000000000000
 0.006537666256   -0.007736327533    0.000000000000
 0.006567873293   -0.007301348366    0.000000000000
 0.006582149328   -0.006877873112    0.000000000000
 0.006588344367   -0.006458328114    0.000000000000
 0.006588347727   -0.006041662698    0.000000000000
 0.006588351652   -0.005624996145    0.000000000000
 0.006588355323   -0.005208329688    0.000000000000
 0.006588359286   -0.004791664592    0.000000000000
 0.006588363423   -0.004374998165    0.000000000000
 0.006588366951   -0.003958331686    0.000000000000
 0.006588370451   -0.003541666446    0.000000000000
 0.006588373854   -0.003124999777    0.000000000000
 0.006582806399   -0.002702117020    0.000000000000
 0.006568422922   -0.002272268560    0.000000000000
 0.006548097620   -0.001837410733    0.000000000000
 0.006575164200   -0.001418823697    0.000000000000
 0.006655993679   -0.001057790630    0.000000000000
 0.006054438652   -0.001115430290    0.000000000000
 0.005342225911   -0.001128137111    0.000000000000
 0.004588514650   -0.001121291997    0.000000000000
 0.003833583457   -0.001114460710    0.000000000000
 0.003075392423   -0.001121543392    0.000000000000
 0.002341553424   -0.001119121885    0.000000000000
 0.002584705471   -0.001555683495    0.000000000000
 0.002507313292   -0.002042172439    0.000000000000
 0.002493319796   -0.002477240007    0.000000000000
 0.002448899132   -0.002911253475    0.000000000000
 0.002427463535   -0.003333345720    0.000000000000
 0.002427462353   -0.003750013747    0.000000000000
 0.002427461032   -0.004166681558    0.000000000000
 0.002427459535   -0.004583348114    0.000000000000
 0.002427457861   -0.005000015393    0.000000000000
 0.002427456034   -0.005416682394    0.000000000000
 0.002427454072   -0.005833348115    0.000000000000
 0.002427451964   -0.006250014548    0.000000000000
 0.002427449693   -0.006666680721    0.000000000000
 0.002434805067   -0.007092132611    0.000000000000
 0.002451398444   -0.007523894107    0.000000000000
 0.002473430825   -0.007957743215    0.000000000000
 0.002579326825   -0.008442223895    0.000000000000
 0.003409913232   -0.008494189191    0.000000000000
 0.004183532303   -0.008501072899    0.000000000000
 0.004945228852   -0.008525992627    0.000000000000
 0.005771950983   -0.008467986944    0.000000000000
 0.005880421564   -0.007969103550    0.000000000000
 0.005924182345   -0.007522705414    0.000000000000
 0.005971052957   -0.007087628432    0.000000000000
 0.005981479706   -0.006666664744    0.000000000000
 0.005981483203   -0.006249998365    0.000000000000
 0.005981486809   -0.005833332083    0.000000000000
 0.005981490660   -0.005416666773    0.000000000000
 0.005981494647   -0.005000000488    0.000000000000
 0.005981498398   -0.004583334126    0.000000000000
 0.005981502078   -0.004166668599    0.000000000000
 0.005981505602   -0.003750001986    0.000000000000
 0.005981508649   -0.003333335232    0.000000000000
 0.005979323489   -0.002912318315    0.000000000000
 0.005964834206   -0.002480455415    0.000000000000
 0.005935606869   -0.002042268428    0.000000000000
 0.005829630595   -0.001557785209    0.000000000000
 0.004996130376   -0.001503107349    0.000000000000
 0.004213323826   -0.001501025461    0.000000000000
 0.003434971781   -0.001482126355    0.000000000000
 0.003082062796   -0.001844074032    0.000000000000
 0.003234071020   -0.002231265134    0.000000000000
 0.003081572803   -0.002702722833    0.000000000000
 0.003043451922   -0.003123616089    0.000000000000
 0.003034328419   -0.003541679125    0.000000000000
 0.003034326788   -0.003958345900    0.000000000000
 0.003034324950   -0.004375013407    0.000000000000
 0.003034322911   -0.004791680643    0.000000000000
 0.003034320710   -0.005208346617    0.000000000000
 0.003034318353   -0.005625013332    0.000000000000
 0.003034315840   -0.006041679769    0.000000000000
 0.003034313214   -0.006458344934    0.000000000000
 0.003037071941   -0.006880855848    0.000000000000
 0.003052827333   -0.007312788498    0.000000000000
 0.003080368640   -0.007755056955    0.000000000000
 0.003056491736   -0.008151457579    0.000000000000
 0.003771223361   -0.008043345334    0.000000000000
 0.004619231263   -0.008120863033    0.000000000000
 0.005275908376   -0.008172962124    0.000000000000
 0.005174465004   -0.007749342815    0.000000000000
 0.005374612300   -0.007291666550    0.000000000000
 0.005383937516   -0.006873529199    0.000000000000
 0.005387698048   -0.006457725003    0.000000000000
 0.005388406322   -0.006041505752    0.000000000000
 0.005388539526   -0.005624965597    0.000000000000
 0.005388568520   -0.005208328360    0.000000000000
 0.005388575559   -0.004791668881    0.000000000000
 0.005388580743   -0.004375004342    0.000000000000
 0.005388584062   -0.003958337620    0.000000000000
 0.005388587106   -0.003541671616    0.000000000000
 0.005386018445   -0.003119107590    0.000000000000
 0.005367430508   -0.002689985487    0.000000000000
 0.005339165173   -0.002245152074    0.000000000000
 0.005352462926   -0.001848552456    0.000000000000
 0.004641749801   -0.001958599969    0.000000000000
 0.003779179066   -0.001882712205    0.000000000000
 0.003651377357   -0.002568498410    0.000000000000
 0.003651293704   -0.002922850361    0.000000000000
 0.003641194566   -0.003333343301    0.000000000000
 0.003641192636   -0.003750011009    0.000000000000
 0.003641190450   -0.004166678445    0.000000000000
 0.003641188079   -0.004583344608    0.000000000000
 0.003641185546   -0.005000011545    0.000000000000
 0.003641182830   -0.005416678234    0.000000000000
 0.003641179953   -0.005833343661    0.000000000000
 0.003633223786   -0.006250426902    0.000000000000
 0.003635395253   -0.006669616867    0.000000000000
 0.003645514798   -0.007095706595    0.000000000000
 0.003689956186   -0.007538053090    0.000000000000
 0.004367540823   -0.007725314729    0.000000000000
 0.004789097402   -0.007429266730    0.000000000000
 0.004799727265   -0.007072088505    0.000000000000
 0.004802132099   -0.006664795384    0.000000000000
 0.004802535809   -0.006249692329    0.000000000000
 0.004802606673   -0.005833286224    0.000000000000
 0.004802620301   -0.005416663958    0.000000000000
 0.004802625393   -0.005000005557    0.000000000000
 0.004802628717   -0.004583339946    0.000000000000
 0.004802631812   -0.004166674078    0.000000000000
 0.004802634662   -0.003750007048    0.000000000000
 0.004802637358   -0.003333339841    0.000000000000
 0.004796617315   -0.002903995420    0.000000000000
 0.004739784838   -0.002462609881    0.000000000000
 0.004068897456   -0.002279179826    0.000000000000
 0.004221051272   -0.002706473571    0.000000000000
 0.004226809551   -0.003123613397    0.000000000000
 0.004227086538   -0.003541442979    0.000000000000
 0.004227131168   -0.003958304302    0.000000000000
 0.004227136907   -0.004375002425    0.000000000000
 0.004227135760   -0.004791674321    0.000000000000
 0.004227132744   -0.005208339963    0.000000000000
 0.004227126195   -0.005624998391    0.000000000000
 0.004227109451   -0.006041611616    0.000000000000
 0.004227027049   -0.006457964664    0.000000000000
 0.004227267589   -0.006874817605    0.000000000000
 0.004248029469   -0.007291671402    0.000000000000
 0.000471748349   -0.000280503527    0.000000000000
 0.007937231402   -0.000280501460    0.000000000000
 0.007937182742   -0.009719497512    0.000000000000
 0.000471741440   -0.009719500212    0.000000000000
VECTORS   ndDisp   float
 0.000000000000   -0.000000000000    0.000000000000
 0.000089189029   -0.000000000000    0.000000000000
 0.000003716210   -0.000000000000    0.000000000000
 0.000007432423   -0.000000000000    0.000000000000
 0.000011148633   -0.000000000000    0.000000000000
 0.000014864844   -0.000000000000    0.000000000000
 0.000018581062   -0.000000000000    0.000000000000
 0.000022297268   -0.000000000000    0.000000000000
 0.000026013474   -0.000000000000    0.000000000000
 0.000029729698   -0.000000000000    0.000000000000
 0.000033445904   -0.000000000000    0.000000000000
 0.000037162110   -0.000000000000    0.000000000000
 0.000040878333   -0.000000000000    0.000000000000
 0.000044594539   -0.000000000000    0.000000000000
 0.000048310744   -0.000000000000    0.000000000000
 0.000052026966   -0.000000000000    0.000000000000
 0.000055743170   -0.000000000000    0.000000000000
 0.000059459375   -0.000000000000    0.000000000000
 0.000063175595   -0.000000000000    0.000000000000
 0.000066891795   -0.000000000000    0.000000000000
 0.000070607994   -0.000000000000    0.000000000000
 0.000074324215   -0.000000000000    0.000000000000
 0.000078040421   -0.000000000000    0.000000000000
 0.000081756623   -0.000000000000    0.000000000000
 0.000085472836   -0.000000000000    0.000000000000
 0.000089188808   -0.000100000000    0.000000000000
 0.000089189035   -0.000002083332    0.000000000000
 0.000089189033   -0.000004166664    0.000000000000
 0.000089189033   -0.000006249992    0.000000000000
 0.000089189040   -0.000008333326    0.000000000000
 0.000089189017   -0.000010416668    0.000000000000
 0.000089188988   -0.000012499992    0.000000000000
 0.000089189017   -0.000014583316    0.000000000000
 0.000089189027   -0.000016666660    0.000000000000
 0.000089189007   -0.000018749987    0.000000000000
 0.000089189021   -0.000020833314    0.000000000000
 0.000089189004   -0.000022916659    0.000000000000
 0.000089188968   -0.000024999983    0.000000000000
 0.000089188993   -0.000027083306    0.000000000000
 0.000089188999   -0.000029166651    0.000000000000
 0.000089188975   -0.000031249978    0.000000000000
 0.000089188985   -0.000033333304    0.000000000000
 0.000089188965   -0.000035416649    0.000000000000
 0.000089188926   -0.000037499972    0.000000000000
 0.000089188950   -0.000039583296    0.000000000000
 0.000089188955   -0.000041666641    0.000000000000
 0.000089188930   -0.000043749968    0.000000000000
 0.000089188941   -0.000045833296    0.000000000000
 0.000089188923   -0.000047916643    0.000000000000
 0.000089188886   -0.000049999968    0.000000000000
 0.000089188913   -0.000052083294    0.000000000000
 0.000089188921   -0.000054166642    0.000000000000
 0.000089188899   -0.000056249972    0.000000000000
 0.000089188914   -0.000058333301    0.000000000000
 0.000089188897   -0.000060416649    0.000000000000
 0.000089188863   -0.000062499976    0.000000000000
 0.000089188890   -0.000064583302    0.000000000000
 0.000089188900   -0.000066666650    0.000000000000
 0.000089188879   -0.000068749980    0.000000000000
 0.000089188894   -0.000070833310    0.000000000000
 0.000089188876   -0.000072916657    0.000000000000
 0.000089188841   -0.000074999982    0.000000000000
 0.000089188866   -0.000077083307    0.000000000000
 0.000089188874   -0.000079166653    0.000000000000
 0.000089188850   -0.000081249982    0.000000000000
 0.000089188864   -0.000083333311    0.000000000000
 0.000089188846   -0.000085416657    0.000000000000
 0.000089188812   -0.000087499982    0.000000000000
 0.000089188839   -0.000089583311    0.000000000000
 0.000089188851   -0.000091666661    0.000000000000
 0.000089188829   -0.000093749991    0.000000000000
 0.000089188847   -0.000095833322    0.000000000000
 0.000089188836   -0.000097916671    0.000000000000
 0.000000000000   -0.000100000000    0.000000000000
 0.000085472629   -0.000100000000    0.000000000000
 0.000081756413   -0.000100000000    0.000000000000
 0.000078040205   -0.000100000000    0.000000000000
 0.000074324005   -0.000100000000    0.000000000000
 0.000070607788   -0.000100000000    0.000000000000
 0.000066891594   -0.000100000000    0.000000000000
 0.000063175391   -0.000100000000    0.000000000000
 0.000059459180   -0.000100000000    0.000000000000
 0.000055742990   -0.000100000000    0.000000000000
 0.000052026805   -0.000100000000    0.000000000000
 0.000048310592   -0.000100000000    0.000000000000
 0.000044594398   -0.000100000000    0.000000000000
 0.000040878195   -0.000100000000    0.000000000000
 0.000037161981   -0.000100000000    0.000000000000
 0.000033445788   -0.000100000000    0.000000000000
 0.000029729599   -0.000100000000    0.000000000000
 0.000026013373   -0.000100000000    0.000000000000
 0.000022297175   -0.000100000000    0.000000000000
 0.000018580983   -0.000100000000    0.000000000000
 0.000014864778   -0.000100000000    0.000000000000
 0.000011148572   -0.000100000000    0.000000000000
 0.000007432370   -0.000100000000    0.000000000000
 0.000003716184   -0.000100000000    0.000000000000
 0.000000000000   -0.000097916682    0.000000000000
 0.000000000000   -0.000095833354    0.000000000000
 0.000000000000   -0.000093750032    0.000000000000
 0.000000000000   -0.000091666705    0.000000000000
 0.000000000000   -0.000089583367    0.000000000000
 0.000000000000   -0.000087500039    0.000000000000
 0.000000000000   -0.000085416711    0.000000000000
 0.000000000000   -0.000083333372    0.000000000000
 0.000000000000   -0.000081250043    0.000000000000
 0.000000000000   -0.000079166715    0.000000000000
 0.000000000000   -0.000077083377    0.000000000000
 0.000000000000   -0.000075000050    0.000000000000
 0.000000000000   -0.000072916722    0.000000000000
 0.000000000000   -0.000070833384    0.000000000000
 0.000000000000   -0.000068750056    0.000000000000
 0.000000000000   -0.000066666728    0.000000000000
 0.000000000000   -0.000064583390    0.000000000000
 0.000000000000   -0.000062500063    0.000000000000
 0.000000000000   -0.000060416735    0.000000000000
 0.000000000000   -0.000058333397    0.000000000000
 0.000000000000   -0.000056250069    0.000000000000
 0.000000000000   -0.000054166740    0.000000000000
 0.000000000000   -0.000052083401    0.000000000000
 0.000000000000   -0.000050000071    0.000000000000
 0.000000000000   -0.000047916741    0.000000000000
 0.000000000000   -0.000045833401    0.000000000000
 0.000000000000   -0.000043750069    0.000000000000
 0.000000000000   -0.000041666738    0.000000000000
 0.000000000000   -0.000039583395    0.000000000000
 0.000000000000   -0.000037500063    0.000000000000
 0.000000000000   -0.000035416730    0.000000000000
 0.000000000000   -0.000033333387    0.000000000000
 0.000000000000   -0.000031250053    0.000000000000
 0.000000000000   -0.000029166720    0.000000000000
 0.000000000000   -0.000027083376    0.000000000000
 0.000000000000   -0.000025000043    0.000000000000
 0.000000000000   -0.000022916709    0.000000000000
 0.000000000000   -0.000020833366    0.000000000000
 0.000000000000   -0.000018750032    0.000000000000
 0.000000000000   -0.000016666698    0.000000000000
 0.000000000000   -0.000014583355    0.000000000000
 0.000000000000   -0.000012500021    0.000000000000
 0.000000000000   -0.000010416688    0.000000000000
 0.000000000000   -0.000008333347    0.000000000000
 0.000000000000   -0.000006250011    0.000000000000
 0.000000000000   -0.000004166674    0.000000000000
 0.000000000000   -0.000002083337    0.000000000000
 0.000037192657   -0.000020569852    0.000000000000
 0.000043963258   -0.000024928223    0.000000000000
 0.000081263690   -0.000003118275    0.000000000000
 0.000083626524   -0.000095556985    0.000000000000
 0.000007925320   -0.000096881739    0.000000000000
 0.000005502849   -0.000004453389    0.000000000000
 0.000005490784   -0.000095528138    0.000000000000
 0.000002501755   -0.000096514179    0.000000000000
 0.000006217941   -0.000098597497    0.000000000000
 0.000002501755   -0.000098597498    0.000000000000
 0.000081211908   -0.000096921825    0.000000000000
 0.000082970861   -0.000098597488    0.000000000000
 0.000086687066   -0.000096514159    0.000000000000
 0.000086687061   -0.000098597495    0.000000000000
 0.000083698227   -0.000004471884    0.000000000000
 0.000086687270   -0.000003485841    0.000000000000
 0.000082971072   -0.000001402510    0.000000000000
 0.000086687267   -0.000001402509    0.000000000000
 0.000007950572   -0.000003079612    0.000000000000
 0.000006217983   -0.000001402513    0.000000000000
 0.000002501773   -0.000003485850    0.000000000000
 0.000002501773   -0.000001402513    0.000000000000
 0.000044946419   -0.000070832418    0.000000000000
 0.000044835002   -0.000066663882    0.000000000000
 0.000044834161   -0.000062497847    0.000000000000
 0.000044834656   -0.000058333010    0.000000000000
 0.000044834756   -0.000054166641    0.000000000000
 0.000044834783   -0.000050000022    0.000000000000
 0.000044834774   -0.000045833331    0.000000000000
 0.000044834747   -0.000041666481    0.000000000000
 0.000044834452   -0.000037498680    0.000000000000
 0.000044832730   -0.000033325239    0.000000000000
 0.000044800701   -0.000029150396    0.000000000000
 0.000047521114   -0.000025845382    0.000000000000
 0.000047822515   -0.000028052313    0.000000000000
 0.000047853050   -0.000030138005    0.000000000000
 0.000047884993   -0.000032284726    0.000000000000
 0.000047886469   -0.000034373877    0.000000000000
 0.000047886464   -0.000036457207    0.000000000000
 0.000047886710   -0.000038541507    0.000000000000
 0.000047886705   -0.000040624848    0.000000000000
 0.000047886754   -0.000042708338    0.000000000000
 0.000047886750   -0.000044791668    0.000000000000
 0.000047886746   -0.000046875029    0.000000000000
 0.000047886741   -0.000048958358    0.000000000000
 0.000047886737   -0.000051041688    0.000000000000
 0.000047886714   -0.000053124988    0.000000000000
 0.000047886708   -0.000055208277    0.000000000000
 0.000047886631   -0.000057291386    0.000000000000
 0.000047886553   -0.000059374464    0.000000000000
 0.000047886207   -0.000061456492    0.000000000000
 0.000047885771   -0.000063538260    0.000000000000
 0.000047883641   -0.000065613778    0.000000000000
 0.000047884917   -0.000067698046    0.000000000000
 0.000047872191   -0.000069734514    0.000000000000
 0.000047982297   -0.000071818782    0.000000000000
 0.000047925942   -0.000073604681    0.000000000000
 0.000045690330   -0.000075084913    0.000000000000
 0.000042096950   -0.000074148599    0.000000000000
 0.000041861249   -0.000071936862    0.000000000000
 0.000041751144   -0.000069852595    0.000000000000
 0.000041697460   -0.000067722137    0.000000000000
 0.000041696166   -0.000065637870    0.000000000000
 0.000041684650   -0.000063541922    0.000000000000
 0.000041685067   -0.000061460153    0.000000000000
 0.000041727259   -0.000059374734    0.000000000000
 0.000041727336   -0.000057291655    0.000000000000
 0.000041727341   -0.000055208325    0.000000000000
 0.000041727363   -0.000053125035    0.000000000000
 0.000041727368   -0.000051041705    0.000000000000
 0.000041727372   -0.000048958375    0.000000000000
 0.000041727376   -0.000046875034    0.000000000000
 0.000041727362   -0.000044791674    0.000000000000
 0.000041727366   -0.000042708344    0.000000000000
 0.000041727335   -0.000040624853    0.000000000000
 0.000041727339   -0.000038541513    0.000000000000
 0.000041727093   -0.000036457212    0.000000000000
 0.000041727097   -0.000034373882    0.000000000000
 0.000041725620   -0.000032284731    0.000000000000
 0.000041779172   -0.000030232269    0.000000000000
 0.000041748637   -0.000028146577    0.000000000000
 0.000041749068   -0.000026374816    0.000000000000
 0.000046714206   -0.000023708920    0.000000000000
 0.000049752146   -0.000022106027    0.000000000000
 0.000050573463   -0.000026833001    0.000000000000
 0.000050906807   -0.000031186642    0.000000000000
 0.000050938727   -0.000035416704    0.000000000000
 0.000050938717   -0.000039583364    0.000000000000
 0.000050938709   -0.000043750035    0.000000000000
 0.000050938699   -0.000047916695    0.000000000000
 0.000050938689   -0.000052083314    0.000000000000
 0.000050938606   -0.000056249731    0.000000000000
 0.000050938181   -0.000060414868    0.000000000000
 0.000050935686   -0.000064572423    0.000000000000
 0.000050920813   -0.000068684410    0.000000000000
 0.000050851715   -0.000072506777    0.000000000000
 0.000048559730   -0.000075772909    0.000000000000
 0.000050603438   -0.000077373287    0.000000000000
 0.000042730737   -0.000076316825    0.000000000000
 0.000039568348   -0.000077906966    0.000000000000
 0.000038901675   -0.000073168765    0.000000000000
 0.000038612308   -0.000068826582    0.000000000000
 0.000038547089   -0.000064600176    0.000000000000
 0.000038577746   -0.000060418798    0.000000000000
 0.000038619943   -0.000056250049    0.000000000000
 0.000038619951   -0.000052083378    0.000000000000
 0.000038619960   -0.000047916717    0.000000000000
 0.000038619968   -0.000043750047    0.000000000000
 0.000038619976   -0.000039583376    0.000000000000
 0.000038619983   -0.000035416714    0.000000000000
 0.000038673539   -0.000031280912    0.000000000000
 0.000038727539   -0.000027456698    0.000000000000
 0.000040942159   -0.000024238344    0.000000000000
 0.000038729096   -0.000022552183    0.000000000000
 0.000041619910   -0.000020809420    0.000000000000
 0.000046194308   -0.000021188868    0.000000000000
 0.000052930791   -0.000021018734    0.000000000000
 0.000053450688   -0.000023538786    0.000000000000
 0.000053600592   -0.000025762957    0.000000000000
 0.000053902011   -0.000027969878    0.000000000000
 0.000054000578   -0.000030115489    0.000000000000
 0.000054032520   -0.000032262209    0.000000000000
 0.000054046161   -0.000034375030    0.000000000000
 0.000054046156   -0.000036458360    0.000000000000
 0.000054046152   -0.000038541701    0.000000000000
 0.000054046147   -0.000040625032    0.000000000000
 0.000054046143   -0.000042708362    0.000000000000
 0.000054046138   -0.000044791692    0.000000000000
 0.000054046115   -0.000046875021    0.000000000000
 0.000054046109   -0.000048958351    0.000000000000
 0.000054046086   -0.000051041650    0.000000000000
 0.000054046062   -0.000053124949    0.000000000000
 0.000054045931   -0.000055208127    0.000000000000
 0.000054045870   -0.000057291245    0.000000000000
 0.000054045167   -0.000059373953    0.000000000000
 0.000054044802   -0.000061455981    0.000000000000
 0.000054041067   -0.000063537079    0.000000000000
 0.000054038937   -0.000065612597    0.000000000000
 0.000054019005   -0.000067691625    0.000000000000
 0.000054006263   -0.000069728094    0.000000000000
 0.000053956828   -0.000071818774    0.000000000000
 0.000053900457   -0.000073604674    0.000000000000
 0.000052839051   -0.000075893055    0.000000000000
 0.000051938220   -0.000079351037    0.000000000000
 0.000047658916   -0.000079230889    0.000000000000
 0.000043161728   -0.000078843292    0.000000000000
 0.000036335575   -0.000078991977    0.000000000000
 0.000035904584   -0.000076465513    0.000000000000
 0.000035758517   -0.000074254167    0.000000000000
 0.000035522833   -0.000072042432    0.000000000000
 0.000035439270   -0.000069882766    0.000000000000
 0.000035385585   -0.000067752309    0.000000000000
 0.000035370946   -0.000065639761    0.000000000000
 0.000035359410   -0.000063543802    0.000000000000
 0.000035359415   -0.000061460472    0.000000000000
 0.000035401607   -0.000059375052    0.000000000000
 0.000035401611   -0.000057291722    0.000000000000
 0.000035401616   -0.000055208382    0.000000000000
 0.000035401620   -0.000053125051    0.000000000000
 0.000035401624   -0.000051041721    0.000000000000
 0.000035401628   -0.000048958380    0.000000000000
 0.000035401632   -0.000046875050    0.000000000000
 0.000035401636   -0.000044791719    0.000000000000
 0.000035401640   -0.000042708379    0.000000000000
 0.000035401644   -0.000040625048    0.000000000000
 0.000035401648   -0.000038541718    0.000000000000
 0.000035401651   -0.000036458377    0.000000000000
 0.000035401654   -0.000034375046    0.000000000000
 0.000035450033   -0.000032284734    0.000000000000
 0.000035503585   -0.000030232273    0.000000000000
 0.000035705743   -0.000028127811    0.000000000000
 0.000035706191   -0.000026356059    0.000000000000
 0.000036514906   -0.000023998776    0.000000000000
 0.000036386532   -0.000018633890    0.000000000000
 0.000044657869   -0.000019206527    0.000000000000
 0.000053001307   -0.000019035742    0.000000000000
 0.000056699849   -0.000020468501    0.000000000000
 0.000056779237   -0.000024675664    0.000000000000
 0.000057027725   -0.000029045445    0.000000000000
 0.000057139932   -0.000033303876    0.000000000000
 0.000057153569   -0.000037500027    0.000000000000
 0.000057153559   -0.000041666688    0.000000000000
 0.000057153530   -0.000045833347    0.000000000000
 0.000057153501   -0.000049999976    0.000000000000
 0.000057153345   -0.000054166463    0.000000000000
 0.000057152509   -0.000058332358    0.000000000000
 0.000057148071   -0.000062496154    0.000000000000
 0.000057124386   -0.000066656281    0.000000000000
 0.000057055022   -0.000070825990    0.000000000000
 0.000055944165   -0.000075205062    0.000000000000
 0.000055420727   -0.000079611545    0.000000000000
 0.000052476204   -0.000081469137    0.000000000000
 0.000044496526   -0.000080821040    0.000000000000
 0.000036208959   -0.000080973983    0.000000000000
 0.000032545196   -0.000079532529    0.000000000000
 0.000032525743   -0.000075339179    0.000000000000
 0.000032296112   -0.000070968169    0.000000000000
 0.000032197907   -0.000066695944    0.000000000000
 0.000032183271   -0.000062500056    0.000000000000
 0.000032183279   -0.000058333386    0.000000000000
 0.000032183288   -0.000054166725    0.000000000000
 0.000032183296   -0.000050000053    0.000000000000
 0.000032183305   -0.000045833382    0.000000000000
 0.000032183312   -0.000041666721    0.000000000000
 0.000032183319   -0.000037500049    0.000000000000
 0.000032231701   -0.000033326406    0.000000000000
 0.000032482237   -0.000029131633    0.000000000000
 0.000033493128   -0.000024669888    0.000000000000
 0.000033495718   -0.000020376653    0.000000000000
 0.000034561119   -0.000016630968    0.000000000000
 0.000038258077   -0.000016824157    0.000000000000
 0.000042385834   -0.000016918655    0.000000000000
 0.000046960215   -0.000017298103    0.000000000000
 0.000051111589   -0.000017308521    0.000000000000
 0.000054880647   -0.000016758278    0.000000000000
 0.000059300873   -0.000017031676    0.000000000000
 0.000059862903   -0.000019454088    0.000000000000
 0.000059792386   -0.000021437089    0.000000000000
 0.000059947392   -0.000023628020    0.000000000000
 0.000060097296   -0.000025852191    0.000000000000
 0.000060174153   -0.000028011501    0.000000000000
 0.000060272719   -0.000030157112    0.000000000000
 0.000060284327   -0.000032262202    0.000000000000
 0.000060297968   -0.000034375023    0.000000000000
 0.000060297964   -0.000036458353    0.000000000000
 0.000060297959   -0.000038541694    0.000000000000
 0.000060297953   -0.000040625024    0.000000000000
 0.000060297929   -0.000042708354    0.000000000000
 0.000060297923   -0.000044791693    0.000000000000
 0.000060297918   -0.000046875012    0.000000000000
 0.000060297912   -0.000048958351    0.000000000000
 0.000060297887   -0.000051041650    0.000000000000
 0.000060297879   -0.000053124978    0.000000000000
 0.000060297746   -0.000055208166    0.000000000000
 0.000060297739   -0.000057291493    0.000000000000
 0.000060297036   -0.000059374201    0.000000000000
 0.000060297030   -0.000061457529    0.000000000000
 0.000060293295   -0.000063538628    0.000000000000
 0.000060293288   -0.000065621957    0.000000000000
 0.000060273357   -0.000067700987    0.000000000000
 0.000060218073   -0.000069805807    0.000000000000
 0.000060168623   -0.000071896497    0.000000000000
 0.000059920068   -0.000074071879    0.000000000000
 0.000058858663   -0.000076360261    0.000000000000
 0.000058626589   -0.000078592252    0.000000000000
 0.000059164574   -0.000080710362    0.000000000000
 0.000058589337   -0.000083204773    0.000000000000
 0.000054205058   -0.000083494797    0.000000000000
 0.000050722553   -0.000083234288    0.000000000000
 0.000046683098   -0.000083109679    0.000000000000
 0.000042185927   -0.000082722079    0.000000000000
 0.000038083241   -0.000082687650    0.000000000000
 0.000034292862   -0.000083228199    0.000000000000
 0.000029888083   -0.000082968360    0.000000000000
 0.000029326464   -0.000080545957    0.000000000000
 0.000029453097   -0.000078563953    0.000000000000
 0.000029336246   -0.000076394700    0.000000000000
 0.000029190178   -0.000074183356    0.000000000000
 0.000029102170   -0.000072024551    0.000000000000
 0.000029018604   -0.000069864884    0.000000000000
 0.000028979578   -0.000067737616    0.000000000000
 0.000028964937   -0.000065625058    0.000000000000
 0.000028964940   -0.000063541729    0.000000000000
 0.000028964944   -0.000061458389    0.000000000000
 0.000028964948   -0.000059375059    0.000000000000
 0.000028964952   -0.000057291728    0.000000000000
 0.000028964956   -0.000055208388    0.000000000000
 0.000028964960   -0.000053125057    0.000000000000
 0.000028964964   -0.000051041727    0.000000000000
 0.000028964969   -0.000048958386    0.000000000000
 0.000028964973   -0.000046875055    0.000000000000
 0.000028964977   -0.000044791725    0.000000000000
 0.000028964980   -0.000042708384    0.000000000000
 0.000028964984   -0.000040625053    0.000000000000
 0.000028964987   -0.000038541722    0.000000000000
 0.000028964989   -0.000036458380    0.000000000000
 0.000028964992   -0.000034375049    0.000000000000
 0.000029013370   -0.000032284737    0.000000000000
 0.000029127053   -0.000030174285    0.000000000000
 0.000029329210   -0.000028069823    0.000000000000
 0.000029564761   -0.000025899761    0.000000000000
 0.000030373493   -0.000023542478    0.000000000000
 0.000030447700   -0.000021367145    0.000000000000
 0.000029641575   -0.000019431183    0.000000000000
 0.000030051988   -0.000016998750    0.000000000000
 0.000031923532   -0.000015189016    0.000000000000
 0.000040560422   -0.000014915734    0.000000000000
 0.000048839555   -0.000015020649    0.000000000000
 0.000057411173   -0.000015304455    0.000000000000
 0.000062393411   -0.000018000255    0.000000000000
 0.000063110445   -0.000022613606    0.000000000000
 0.000063342308   -0.000026963857    0.000000000000
 0.000063430755   -0.000031228268    0.000000000000
 0.000063442340   -0.000035416689    0.000000000000
 0.000063442329   -0.000039583349    0.000000000000
 0.000063442317   -0.000043750019    0.000000000000
 0.000063442304   -0.000047916687    0.000000000000
 0.000063442289   -0.000052083343    0.000000000000
 0.000063442274   -0.000056250009    0.000000000000
 0.000063442260   -0.000060416675    0.000000000000
 0.000063442248   -0.000064583333    0.000000000000
 0.000063386958   -0.000068771493    0.000000000000
 0.000063083120   -0.000073051706    0.000000000000
 0.000062602510   -0.000077459078    0.000000000000
 0.000061795200   -0.000082185490    0.000000000000
 0.000056835684   -0.000084969925    0.000000000000
 0.000048411953   -0.000085135338    0.000000000000
 0.000040269829   -0.000084976297    0.000000000000
 0.000031762365   -0.000084682025    0.000000000000
 0.000026795966   -0.000081999785    0.000000000000
 0.000026117515   -0.000077408130    0.000000000000
 0.000025912654   -0.000073080071    0.000000000000
 0.000025785618   -0.000068793988    0.000000000000
 0.000025746611   -0.000064583390    0.000000000000
 0.000025746617   -0.000060416731    0.000000000000
 0.000025746624   -0.000056250061    0.000000000000
 0.000025746632   -0.000052083390    0.000000000000
 0.000025746640   -0.000047916728    0.000000000000
 0.000025746648   -0.000043750057    0.000000000000
 0.000025746654   -0.000039583384    0.000000000000
 0.000025746660   -0.000035416721    0.000000000000
 0.000025860326   -0.000031222928    0.000000000000
 0.000026209576   -0.000026942403    0.000000000000
 0.000026519350   -0.000022597008    0.000000000000
 0.000027003988   -0.000017989231    0.000000000000
 0.000026124924   -0.000013373994    0.000000000000
 0.000030016617   -0.000013386104    0.000000000000
 0.000034525749   -0.000013018323    0.000000000000
 0.000038546588   -0.000012982912    0.000000000000
 0.000042674347   -0.000013077410    0.000000000000
 0.000046677900   -0.000013111569    0.000000000000
 0.000050829275   -0.000013121986    0.000000000000
 0.000054826352   -0.000013156214    0.000000000000
 0.000059246579   -0.000013429602    0.000000000000
 0.000063023592   -0.000013366070    0.000000000000
 0.000066977323   -0.000012671268    0.000000000000
 0.000065785113   -0.000014883040    0.000000000000
 0.000065641587   -0.000016975981    0.000000000000
 0.000066203615   -0.000019398392    0.000000000000
 0.000066311403   -0.000021572683    0.000000000000
 0.000066466409   -0.000023763613    0.000000000000
 0.000066542696   -0.000025912862    0.000000000000
 0.000066619536   -0.000028072172    0.000000000000
 0.000066649088   -0.000030186593    0.000000000000
 0.000066660678   -0.000032291684    0.000000000000
 0.000066660672   -0.000034375015    0.000000000000
 0.000066660667   -0.000036458345    0.000000000000
 0.000066660661   -0.000038541684    0.000000000000
 0.000066660654   -0.000040625014    0.000000000000
 0.000066660648   -0.000042708343    0.000000000000
 0.000066660641   -0.000044791683    0.000000000000
 0.000066660634   -0.000046875012    0.000000000000
 0.000066660626   -0.000048958340    0.000000000000
 0.000066660619   -0.000051041677    0.000000000000
 0.000066660611   -0.000053125005    0.000000000000
 0.000066660604   -0.000055208333    0.000000000000
 0.000066660597   -0.000057291672    0.000000000000
 0.000066660590   -0.000059375001    0.000000000000
 0.000066660584   -0.000061458330    0.000000000000
 0.000066660578   -0.000063541669    0.000000000000
 0.000066660573   -0.000065624999    0.000000000000
 0.000066627730   -0.000067722730    0.000000000000
 0.000066572447   -0.000069827551    0.000000000000
 0.000066496758   -0.000071944923    0.000000000000
 0.000066248203   -0.000074120314    0.000000000000
 0.000066087998   -0.000076295204    0.000000000000
 0.000065855942   -0.000078527195    0.000000000000
 0.000065711845   -0.000080732807    0.000000000000
 0.000065136609   -0.000083227218    0.000000000000
 0.000065256013   -0.000085339870    0.000000000000
 0.000066580501   -0.000087549529    0.000000000000
 0.000062544453   -0.000086889572    0.000000000000
 0.000058754046   -0.000086794923    0.000000000000
 0.000054369770   -0.000087084935    0.000000000000
 0.000050397868   -0.000087111166    0.000000000000
 0.000046358415   -0.000086986557    0.000000000000
 0.000042405744   -0.000086919987    0.000000000000
 0.000038303058   -0.000086885543    0.000000000000
 0.000034338083   -0.000086833151    0.000000000000
 0.000029933297   -0.000086573313    0.000000000000
 0.000026165375   -0.000086633954    0.000000000000
 0.000022211655   -0.000087328756    0.000000000000
 0.000023403864   -0.000085116990    0.000000000000
 0.000023547462   -0.000083024056    0.000000000000
 0.000022985864   -0.000080601654    0.000000000000
 0.000022878609   -0.000078427370    0.000000000000
 0.000022761774   -0.000076258126    0.000000000000
 0.000022685626   -0.000074108881    0.000000000000
 0.000022597615   -0.000071950065    0.000000000000
 0.000022567291   -0.000069835657    0.000000000000
 0.000022528281   -0.000067708389    0.000000000000
 0.000022528282   -0.000065625061    0.000000000000
 0.000022528284   -0.000063541732    0.000000000000
 0.000022528287   -0.000061458393    0.000000000000
 0.000022528290   -0.000059375063    0.000000000000
 0.000022528293   -0.000057291733    0.000000000000
 0.000022528296   -0.000055208393    0.000000000000
 0.000022528300   -0.000053125062    0.000000000000
 0.000022528304   -0.000051041732    0.000000000000
 0.000022528308   -0.000048958391    0.000000000000
 0.000022528312   -0.000046875060    0.000000000000
 0.000022528316   -0.000044791729    0.000000000000
 0.000022528319   -0.000042708388    0.000000000000
 0.000022528322   -0.000040625057    0.000000000000
 0.000022528325   -0.000038541725    0.000000000000
 0.000022528327   -0.000036458384    0.000000000000
 0.000022528329   -0.000034375052    0.000000000000
 0.000022567485   -0.000032279320    0.000000000000
 0.000022681167   -0.000030168868    0.000000000000
 0.000022763294   -0.000028050676    0.000000000000
 0.000022998861   -0.000025880613    0.000000000000
 0.000023086909   -0.000023734060    0.000000000000
 0.000023161115   -0.000021558727    0.000000000000
 0.000023211365   -0.000019379864    0.000000000000
 0.000023621796   -0.000016947420    0.000000000000
 0.000023406280   -0.000014815727    0.000000000000
 0.000022116802   -0.000012632923    0.000000000000
 0.000021682684   -0.000010864300    0.000000000000
 0.000028727122   -0.000011203300    0.000000000000
 0.000036639656   -0.000011179999    0.000000000000
 0.000044664049   -0.000011178747    0.000000000000
 0.000052664698   -0.000011247133    0.000000000000
 0.000060438789   -0.000011217829    0.000000000000
 0.000067405984   -0.000010866107    0.000000000000
 0.000070167505   -0.000012383077    0.000000000000
 0.000069595300   -0.000016281177    0.000000000000
 0.000069559579   -0.000020548399    0.000000000000
 0.000069743653   -0.000024871938    0.000000000000
 0.000069849476   -0.000029135598    0.000000000000
 0.000069879005   -0.000033333341    0.000000000000
 0.000069878991   -0.000037500010    0.000000000000
 0.000069878980   -0.000041666678    0.000000000000
 0.000069878965   -0.000045833336    0.000000000000
 0.000069878947   -0.000050000002    0.000000000000
 0.000069878934   -0.000054166668    0.000000000000
 0.000069878921   -0.000058333327    0.000000000000
 0.000069878908   -0.000062499995    0.000000000000
 0.000069846063   -0.000066681056    0.000000000000
 0.000069737513   -0.000070896159    0.000000000000
 0.000069501634   -0.000075188431    0.000000000000
 0.000069197352   -0.000079568923    0.000000000000
 0.000069172659   -0.000083887187    0.000000000000
 0.000069804999   -0.000087788574    0.000000000000
 0.000067093439   -0.000089338277    0.000000000000
 0.000060078536   -0.000089004584    0.000000000000
 0.000052316230   -0.000088936165    0.000000000000
 0.000044391658   -0.000088895815    0.000000000000
 0.000036473995   -0.000088776838    0.000000000000
 0.000028741092   -0.000088785080    0.000000000000
 0.000021782992   -0.000089133913    0.000000000000
 0.000019021481   -0.000087616949    0.000000000000
 0.000019593744   -0.000083718859    0.000000000000
 0.000019630123   -0.000079451651    0.000000000000
 0.000019446736   -0.000075128120    0.000000000000
 0.000019340261   -0.000070864466    0.000000000000
 0.000019309955   -0.000066666730    0.000000000000
 0.000019309958   -0.000062500063    0.000000000000
 0.000019309962   -0.000058333395    0.000000000000
 0.000019309969   -0.000054166735    0.000000000000
 0.000019309976   -0.000050000064    0.000000000000
 0.000019309983   -0.000045833392    0.000000000000
 0.000019309989   -0.000041666730    0.000000000000
 0.000019309994   -0.000037500056    0.000000000000
 0.000019349152   -0.000033320992    0.000000000000
 0.000019470452   -0.000029107068    0.000000000000
 0.000019640627   -0.000024842332    0.000000000000
 0.000019778924   -0.000020516916    0.000000000000
 0.000019613675   -0.000016206349    0.000000000000
 0.000018964040   -0.000012306032    0.000000000000
 0.000020151628   -0.000008935694    0.000000000000
 0.000023304391   -0.000009262582    0.000000000000
 0.000027027874   -0.000009295528    0.000000000000
 0.000030919568   -0.000009307640    0.000000000000
 0.000034748456   -0.000009315789    0.000000000000
 0.000038769295   -0.000009280376    0.000000000000
 0.000042650286   -0.000009271122    0.000000000000
 0.000046653840   -0.000009305282    0.000000000000
 0.000050515904   -0.000009312711    0.000000000000
 0.000054512982   -0.000009346941    0.000000000000
 0.000058308421   -0.000009344578    0.000000000000
 0.000062085433   -0.000009281045    0.000000000000
 0.000065823184   -0.000009265229    0.000000000000
 0.000069013350   -0.000008977035    0.000000000000
 0.000073113921   -0.000009152603    0.000000000000
 0.000073432464   -0.000011459684    0.000000000000
 0.000073003819   -0.000013264845    0.000000000000
 0.000072974313   -0.000015345895    0.000000000000
 0.000072830769   -0.000017438824    0.000000000000
 0.000072823844   -0.000019543853    0.000000000000
 0.000072931631   -0.000021718143    0.000000000000
 0.000072991524   -0.000023861344    0.000000000000
 0.000073067811   -0.000026010595    0.000000000000
 0.000073067808   -0.000028093926    0.000000000000
 0.000073097344   -0.000030208335    0.000000000000
 0.000073097338   -0.000032291675    0.000000000000
 0.000073097330   -0.000034375004    0.000000000000
 0.000073097322   -0.000036458334    0.000000000000
 0.000073097316   -0.000038541674    0.000000000000
 0.000073097310   -0.000040625004    0.000000000000
 0.000073097304   -0.000042708332    0.000000000000
 0.000073097297   -0.000044791670    0.000000000000
 0.000073097287   -0.000046874998    0.000000000000
 0.000073097277   -0.000048958326    0.000000000000
 0.000073097270   -0.000051041665    0.000000000000
 0.000073097264   -0.000053124994    0.000000000000
 0.000073097259   -0.000055208323    0.000000000000
 0.000073097253   -0.000057291661    0.000000000000
 0.000073097245   -0.000059374991    0.000000000000
 0.000073097239   -0.000061458321    0.000000000000
 0.000073097235   -0.000063541662    0.000000000000
 0.000073097233   -0.000065624994    0.000000000000
 0.000073064392   -0.000067722724    0.000000000000
 0.000073031139   -0.000069822485    0.000000000000
 0.000072955448   -0.000071939865    0.000000000000
 0.000072897755   -0.000074056927    0.000000000000
 0.000072737568   -0.000076231829    0.000000000000
 0.000072668142   -0.000078368351    0.000000000000
 0.000072524065   -0.000080573962    0.000000000000
 0.000072514089   -0.000082692892    0.000000000000
 0.000072633472   -0.000084805542    0.000000000000
 0.000072661489   -0.000086901001    0.000000000000
 0.000073174428   -0.000088689750    0.000000000000
 0.000072861158   -0.000090988580    0.000000000000
 0.000068744891   -0.000091167434    0.000000000000
 0.000065520394   -0.000090928388    0.000000000000
 0.000061800594   -0.000090910383    0.000000000000
 0.000058010193   -0.000090815733    0.000000000000
 0.000054224086   -0.000090789623    0.000000000000
 0.000050252186   -0.000090815854    0.000000000000
 0.000046406595   -0.000090810363    0.000000000000
 0.000042453911   -0.000090743781    0.000000000000
 0.000038618866   -0.000090717708    0.000000000000
 0.000034653866   -0.000090665307    0.000000000000
 0.000030871456   -0.000090658327    0.000000000000
 0.000027103531   -0.000090718968    0.000000000000
 0.000023365788   -0.000090734789    0.000000000000
 0.000020175631   -0.000091022978    0.000000000000
 0.000016075064   -0.000090847413    0.000000000000
 0.000015756525   -0.000088540341    0.000000000000
 0.000016185182   -0.000086735186    0.000000000000
 0.000016214687   -0.000084654142    0.000000000000
 0.000016358292   -0.000082561217    0.000000000000
 0.000016365237   -0.000080456192    0.000000000000
 0.000016257994   -0.000078281906    0.000000000000
 0.000016198089   -0.000076138709    0.000000000000
 0.000016121944   -0.000073989462    0.000000000000
 0.000016121943   -0.000071906134    0.000000000000
 0.000016091625   -0.000069791727    0.000000000000
 0.000016091625   -0.000067708389    0.000000000000
 0.000016091625   -0.000065625061    0.000000000000
 0.000016091626   -0.000063541733    0.000000000000
 0.000016091628   -0.000061458394    0.000000000000
 0.000016091629   -0.000059375065    0.000000000000
 0.000016091632   -0.000057291736    0.000000000000
 0.000016091635   -0.000055208397    0.000000000000
 0.000016091638   -0.000053125067    0.000000000000
 0.000016091641   -0.000051041736    0.000000000000
 0.000016091644   -0.000048958396    0.000000000000
 0.000016091647   -0.000046875065    0.000000000000
 0.000016091650   -0.000044791734    0.000000000000
 0.000016091653   -0.000042708392    0.000000000000
 0.000016091656   -0.000040625061    0.000000000000
 0.000016091658   -0.000038541729    0.000000000000
 0.000016091660   -0.000036458387    0.000000000000
 0.000016091662   -0.000034375055    0.000000000000
 0.000016130824   -0.000032279322    0.000000000000
 0.000016130825   -0.000030195990    0.000000000000
 0.000016212953   -0.000028077797    0.000000000000
 0.000016268431   -0.000025962404    0.000000000000
 0.000016356484   -0.000023815851    0.000000000000
 0.000016385377   -0.000021692198    0.000000000000
 0.000016435624   -0.000019513334    0.000000000000
 0.000016416516   -0.000017388881    0.000000000000
 0.000016201007   -0.000015257187    0.000000000000
 0.000016150328   -0.000013172553    0.000000000000
 0.000015716209   -0.000011403940    0.000000000000
 0.000016064794   -0.000009101839    0.000000000000
 0.000017686512   -0.000007500122    0.000000000000
 0.000025496819   -0.000007366923    0.000000000000
 0.000033049208   -0.000007408017    0.000000000000
 0.000040759086   -0.000007406912    0.000000000000
 0.000048502141   -0.000007405089    0.000000000000
 0.000056159645   -0.000007410156    0.000000000000
 0.000063692815   -0.000007391977    0.000000000000
 0.000071531122   -0.000007551730    0.000000000000
 0.000075950254   -0.000010034381    0.000000000000
 0.000076239289   -0.000014422503    0.000000000000
 0.000076202836   -0.000018608570    0.000000000000
 0.000076255790   -0.000022856798    0.000000000000
 0.000076315680   -0.000027083332    0.000000000000
 0.000076315667   -0.000031250000    0.000000000000
 0.000076315656   -0.000035416667    0.000000000000
 0.000076315642   -0.000039583329    0.000000000000
 0.000076315624   -0.000043749994    0.000000000000
 0.000076315610   -0.000047916659    0.000000000000
 0.000076315595   -0.000052083320    0.000000000000
 0.000076315581   -0.000056249987    0.000000000000
 0.000076315573   -0.000060416656    0.000000000000
 0.000076315566   -0.000064583321    0.000000000000
 0.000076282307   -0.000068766422    0.000000000000
 0.000076191383   -0.000072983262    0.000000000000
 0.000076064282   -0.000077236858    0.000000000000
 0.000075984877   -0.000081492318    0.000000000000
 0.000076002902   -0.000085706706    0.000000000000
 0.000075717631   -0.000090101009    0.000000000000
 0.000071288092   -0.000092578692    0.000000000000
 0.000063452047   -0.000092739529    0.000000000000
 0.000055946147   -0.000092695424    0.000000000000
 0.000048314434   -0.000092663821    0.000000000000
 0.000040633785   -0.000092632246    0.000000000000
 0.000033016305   -0.000092599195    0.000000000000
 0.000025496151   -0.000092608037    0.000000000000
 0.000017657858   -0.000092448278    0.000000000000
 0.000013238758   -0.000089965641    0.000000000000
 0.000012949723   -0.000085577534    0.000000000000
 0.000012986171   -0.000081391473    0.000000000000
 0.000012933209   -0.000077143248    0.000000000000
 0.000012873301   -0.000072916722    0.000000000000
 0.000012873300   -0.000068750057    0.000000000000
 0.000012873299   -0.000064583392    0.000000000000
 0.000012873301   -0.000060416735    0.000000000000
 0.000012873305   -0.000056250067    0.000000000000
 0.000012873310   -0.000052083398    0.000000000000
 0.000012873316   -0.000047916737    0.000000000000
 0.000012873321   -0.000043750065    0.000000000000
 0.000012873325   -0.000039583392    0.000000000000
 0.000012873329   -0.000035416727    0.000000000000
 0.000012873331   -0.000031250052    0.000000000000
 0.000012928809   -0.000027051326    0.000000000000
 0.000013013179   -0.000022812269    0.000000000000
 0.000013022963   -0.000018564162    0.000000000000
 0.000012953178   -0.000014355085    0.000000000000
 0.000013251086   -0.000009968363    0.000000000000
 0.000015952500   -0.000005655043    0.000000000000
 0.000020039339   -0.000005488898    0.000000000000
 0.000023788937   -0.000005498372    0.000000000000
 0.000027512421   -0.000005531319    0.000000000000
 0.000031250871   -0.000005539641    0.000000000000
 0.000035079758   -0.000005547790    0.000000000000
 0.000038862767   -0.000005538113    0.000000000000
 0.000042743758   -0.000005528859    0.000000000000
 0.000046515849   -0.000005526987    0.000000000000
 0.000050377913   -0.000005534418    0.000000000000
 0.000054121035   -0.000005537653    0.000000000000
 0.000057916473   -0.000005535291    0.000000000000
 0.000061675112   -0.000005547962    0.000000000000
 0.000065412862   -0.000005532144    0.000000000000
 0.000069216150   -0.000005576635    0.000000000000
 0.000073316740   -0.000005752205    0.000000000000
 0.000076986771   -0.000005579417    0.000000000000
 0.000079421324   -0.000006933026    0.000000000000
 0.000079168030   -0.000008995213    0.000000000000
 0.000079486576   -0.000011302289    0.000000000000
 0.000079491245   -0.000013419009    0.000000000000
 0.000079461735   -0.000015500048    0.000000000000
 0.000079465510   -0.000017604086    0.000000000000
 0.000079458567   -0.000019709116    0.000000000000
 0.000079474121   -0.000021815135    0.000000000000
 0.000079534019   -0.000023958325    0.000000000000
 0.000079534014   -0.000026041667    0.000000000000
 0.000079534006   -0.000028124997    0.000000000000
 0.000079533997   -0.000030208325    0.000000000000
 0.000079533990   -0.000032291665    0.000000000000
 0.000079533987   -0.000034374993    0.000000000000
 0.000079533982   -0.000036458322    0.000000000000
 0.000079533974   -0.000038541662    0.000000000000
 0.000079533964   -0.000040624991    0.000000000000
 0.000079533953   -0.000042708318    0.000000000000
 0.000079533945   -0.000044791657    0.000000000000
 0.000079533941   -0.000046874984    0.000000000000
 0.000079533935   -0.000048958313    0.000000000000
 0.000079533928   -0.000051041654    0.000000000000
 0.000079533920   -0.000053124984    0.000000000000
 0.000079533911   -0.000055208313    0.000000000000
 0.000079533906   -0.000057291653    0.000000000000
 0.000079533905   -0.000059374983    0.000000000000
 0.000079533903   -0.000061458314    0.000000000000
 0.000079533900   -0.000063541657    0.000000000000
 0.000079533894   -0.000065624988    0.000000000000
 0.000079533887   -0.000067708318    0.000000000000
 0.000079500634   -0.000069808089    0.000000000000
 0.000079500635   -0.000071891419    0.000000000000
 0.000079442964   -0.000074008491    0.000000000000
 0.000079404609   -0.000076117444    0.000000000000
 0.000079335197   -0.000078253965    0.000000000000
 0.000079325057   -0.000080349444    0.000000000000
 0.000079315063   -0.000082468375    0.000000000000
 0.000079292424   -0.000084575514    0.000000000000
 0.000079320444   -0.000086670974    0.000000000000
 0.000079241114   -0.000088803116    0.000000000000
 0.000078927824   -0.000091101956    0.000000000000
 0.000079236037   -0.000093159414    0.000000000000
 0.000076821441   -0.000094524256    0.000000000000
 0.000073142668   -0.000094382343    0.000000000000
 0.000069026419   -0.000094561191    0.000000000000
 0.000065213737   -0.000094570265    0.000000000000
 0.000061493942   -0.000094552256    0.000000000000
 0.000057774160   -0.000094546822    0.000000000000
 0.000053988059   -0.000094520713    0.000000000000
 0.000050235313   -0.000094530440    0.000000000000
 0.000046389727   -0.000094524945    0.000000000000
 0.000042628814   -0.000094504183    0.000000000000
 0.000038793749   -0.000094478104    0.000000000000
 0.000035054915   -0.000094471697    0.000000000000
 0.000031272484   -0.000094464714    0.000000000000
 0.000027513852   -0.000094452044    0.000000000000
 0.000023776113   -0.000094467862    0.000000000000
 0.000019972830   -0.000094423375    0.000000000000
 0.000015872254   -0.000094247808    0.000000000000
 0.000012202212   -0.000094420599    0.000000000000
 0.000009767677   -0.000093066998    0.000000000000
 0.000010020977   -0.000091004815    0.000000000000
 0.000009702436   -0.000088697741    0.000000000000
 0.000009697769   -0.000086581026    0.000000000000
 0.000009727273   -0.000084499990    0.000000000000
 0.000009723504   -0.000082395953    0.000000000000
 0.000009730447   -0.000080290925    0.000000000000
 0.000009714883   -0.000078184907    0.000000000000
 0.000009654978   -0.000076041719    0.000000000000
 0.000009654977   -0.000073958381    0.000000000000
 0.000009654977   -0.000071875053    0.000000000000
 0.000009654976   -0.000069791725    0.000000000000
 0.000009654976   -0.000067708388    0.000000000000
 0.000009654975   -0.000065625060    0.000000000000
 0.000009654975   -0.000063541732    0.000000000000
 0.000009654976   -0.000061458394    0.000000000000
 0.000009654977   -0.000059375066    0.000000000000
 0.000009654978   -0.000057291738    0.000000000000
 0.000009654980   -0.000055208399    0.000000000000
 0.000009654982   -0.000053125069    0.000000000000
 0.000009654984   -0.000051041740    0.000000000000
 0.000009654986   -0.000048958399    0.000000000000
 0.000009654988   -0.000046875069    0.000000000000
 0.000009654990   -0.000044791738    0.000000000000
 0.000009654992   -0.000042708396    0.000000000000
 0.000009654994   -0.000040625064    0.000000000000
 0.000009654996   -0.000038541732    0.000000000000
 0.000009654997   -0.000036458390    0.000000000000
 0.000009654998   -0.000034375057    0.000000000000
 0.000009654999   -0.000032291724    0.000000000000
 0.000009655000   -0.000030208381    0.000000000000
 0.000009655000   -0.000028125048    0.000000000000
 0.000009710478   -0.000026009655    0.000000000000
 0.000009710478   -0.000023926321    0.000000000000
 0.000009739370   -0.000021802668    0.000000000000
 0.000009756164   -0.000019691864    0.000000000000
 0.000009737056   -0.000017567410    0.000000000000
 0.000009729457   -0.000015480247    0.000000000000
 0.000009678778   -0.000013395623    0.000000000000
 0.000009697864   -0.000011251280    0.000000000000
 0.000010046451   -0.000008949185    0.000000000000
 0.000009800913   -0.000006884009    0.000000000000
 0.000012248634   -0.000005510233    0.000000000000
 0.000014601463   -0.000003499009    0.000000000000
 0.000022054923   -0.000003653295    0.000000000000
 0.000029542971   -0.000003671091    0.000000000000
 0.000037064430   -0.000003669736    0.000000000000
 0.000044619529   -0.000003658188    0.000000000000
 0.000052134742   -0.000003659552    0.000000000000
 0.000059636520   -0.000003675459    0.000000000000
 0.000067198462   -0.000003732619    0.000000000000
 0.000074671820   -0.000003604323    0.000000000000
 0.000080776410   -0.000004785141    0.000000000000
 0.000082957661   -0.000008200941    0.000000000000
 0.000082709041   -0.000012379846    0.000000000000
 0.000082717464   -0.000016600593    0.000000000000
 0.000082736793   -0.000020810643    0.000000000000
 0.000082752348   -0.000024999992    0.000000000000
 0.000082752328   -0.000029166660    0.000000000000
 0.000082752315   -0.000033333319    0.000000000000
 0.000082752309   -0.000037499985    0.000000000000
 0.000082752283   -0.000041666652    0.000000000000
 0.000082752268   -0.000045833310    0.000000000000
 0.000082752263   -0.000049999978    0.000000000000
 0.000082752243   -0.000054166648    0.000000000000
 0.000082752234   -0.000058333310    0.000000000000
 0.000082752236   -0.000062499982    0.000000000000
 0.000082752220   -0.000066666654    0.000000000000
 0.000082752213   -0.000070833317    0.000000000000
 0.000082713882   -0.000075025599    0.000000000000
 0.000082665382   -0.000079230030    0.000000000000
 0.000082632603   -0.000083432641    0.000000000000
 0.000082530640   -0.000087671922    0.000000000000
 0.000082759518   -0.000091861532    0.000000000000
 0.000080653142   -0.000095283835    0.000000000000
 0.000074559768   -0.000096506760    0.000000000000
 0.000067068309   -0.000096373912    0.000000000000
 0.000059535850   -0.000096377547    0.000000000000
 0.000052063330   -0.000096381839    0.000000000000
 0.000044549692   -0.000096370802    0.000000000000
 0.000037049927   -0.000096343634    0.000000000000
 0.000029552442   -0.000096324542    0.000000000000
 0.000021990512   -0.000096267384    0.000000000000
 0.000014517173   -0.000096395684    0.000000000000
 0.000008412595   -0.000095214872    0.000000000000
 0.000006231357   -0.000091799088    0.000000000000
 0.000006479986   -0.000087620188    0.000000000000
 0.000006471549   -0.000083399442    0.000000000000
 0.000006452215   -0.000079189396    0.000000000000
 0.000006436651   -0.000075000049    0.000000000000
 0.000006436651   -0.000070833384    0.000000000000
 0.000006436650   -0.000066666729    0.000000000000
 0.000006436650   -0.000062500063    0.000000000000
 0.000006436651   -0.000058333397    0.000000000000
 0.000006436653   -0.000054166740    0.000000000000
 0.000006436656   -0.000050000071    0.000000000000
 0.000006436659   -0.000045833399    0.000000000000
 0.000006436662   -0.000041666736    0.000000000000
 0.000006436664   -0.000037500062    0.000000000000
 0.000006436665   -0.000033333386    0.000000000000
 0.000006436666   -0.000029166720    0.000000000000
 0.000006436666   -0.000025000043    0.000000000000
 0.000006453461   -0.000020805906    0.000000000000
 0.000006462656   -0.000016607939    0.000000000000
 0.000006474143   -0.000012376441    0.000000000000
 0.000006247692   -0.000008166928    0.000000000000
 0.000008449876   -0.000004727975    0.000000000000
 0.000009165010   -0.000001677100    0.000000000000
 0.000012881222   -0.000001677100    0.000000000000
 0.000016585086   -0.000001821910    0.000000000000
 0.000020301305   -0.000001821910    0.000000000000
 0.000024050904   -0.000001831384    0.000000000000
 0.000027767110   -0.000001831384    0.000000000000
 0.000031505559   -0.000001839706    0.000000000000
 0.000035221765   -0.000001839706    0.000000000000
 0.000039004774   -0.000001830029    0.000000000000
 0.000042720998   -0.000001830029    0.000000000000
 0.000046493071   -0.000001828159    0.000000000000
 0.000050209294   -0.000001828158    0.000000000000
 0.000053952415   -0.000001831394    0.000000000000
 0.000057668619   -0.000001831394    0.000000000000
 0.000061427276   -0.000001844065    0.000000000000
 0.000065143478   -0.000001844064    0.000000000000
 0.000068946780   -0.000001888554    0.000000000000
 0.000072662980   -0.000001888557    0.000000000000
 0.000076333037   -0.000001715767    0.000000000000
 0.000080049242   -0.000001715765    0.000000000000
 0.000086199995   -0.000005152703    0.000000000000
 0.000086199990   -0.000007236038    0.000000000000
 0.000085946685   -0.000009298233    0.000000000000
 0.000085946677   -0.000011381560    0.000000000000
 0.000085951349   -0.000013498277    0.000000000000
 0.000085951352   -0.000015581606    0.000000000000
 0.000085955133   -0.000017685641    0.000000000000
 0.000085955129   -0.000019768969    0.000000000000
 0.000085970678   -0.000021874994    0.000000000000
 0.000085970669   -0.000023958324    0.000000000000
 0.000085970664   -0.000026041651    0.000000000000
 0.000085970662   -0.000028124980    0.000000000000
 0.000085970658   -0.000030208315    0.000000000000
 0.000085970651   -0.000032291652    0.000000000000
 0.000085970641   -0.000034374987    0.000000000000
 0.000085970630   -0.000036458315    0.000000000000
 0.000085970621   -0.000038541642    0.000000000000
 0.000085970618   -0.000040624971    0.000000000000
 0.000085970612   -0.000042708305    0.000000000000
 0.000085970605   -0.000044791644    0.000000000000
 0.000085970596   -0.000046874979    0.000000000000
 0.000085970585   -0.000048958309    0.000000000000
 0.000085970580   -0.000051041637    0.000000000000
 0.000085970579   -0.000053124968    0.000000000000
 0.000085970576   -0.000055208305    0.000000000000
 0.000085970573   -0.000057291645    0.000000000000
 0.000085970566   -0.000059374982    0.000000000000
 0.000085970559   -0.000061458314    0.000000000000
 0.000085970555   -0.000063541644    0.000000000000
 0.000085970556   -0.000065624975    0.000000000000
 0.000085970555   -0.000067708313    0.000000000000
 0.000085970552   -0.000069791653    0.000000000000
 0.000085970547   -0.000071874990    0.000000000000
 0.000085970539   -0.000073958321    0.000000000000
 0.000085932201   -0.000076067260    0.000000000000
 0.000085932200   -0.000078150591    0.000000000000
 0.000085922047   -0.000080246077    0.000000000000
 0.000085922042   -0.000082329416    0.000000000000
 0.000085899399   -0.000084436552    0.000000000000
 0.000085899390   -0.000086519882    0.000000000000
 0.000085820078   -0.000088652022    0.000000000000
 0.000085820078   -0.000090735354    0.000000000000
 0.000086128299   -0.000092792823    0.000000000000
 0.000086128297   -0.000094876153    0.000000000000
 0.000079997476   -0.000098324336    0.000000000000
 0.000076281274   -0.000098324340    0.000000000000
 0.000072602499   -0.000098182420    0.000000000000
 0.000068886284   -0.000098182423    0.000000000000
 0.000065073619   -0.000098191488    0.000000000000
 0.000061357403   -0.000098191493    0.000000000000
 0.000057637626   -0.000098186055    0.000000000000
 0.000053921437   -0.000098186056    0.000000000000
 0.000050168698   -0.000098195783    0.000000000000
 0.000046452503   -0.000098195781    0.000000000000
 0.000042691587   -0.000098175020    0.000000000000
 0.000038975388   -0.000098175022    0.000000000000
 0.000035236539   -0.000098168612    0.000000000000
 0.000031520345   -0.000098168614    0.000000000000
 0.000027761694   -0.000098155937    0.000000000000
 0.000024045493   -0.000098155941    0.000000000000
 0.000020242195   -0.000098111454    0.000000000000
 0.000016525998   -0.000098111453    0.000000000000
 0.000012855952   -0.000098284240    0.000000000000
 0.000009139749   -0.000098284243    0.000000000000
 0.000002989025   -0.000094847315    0.000000000000
 0.000002989032   -0.000092763991    0.000000000000
 0.000003242329   -0.000090701805    0.000000000000
 0.000003242329   -0.000088618478    0.000000000000
 0.000003237658   -0.000086501750    0.000000000000
 0.000003237659   -0.000084418421    0.000000000000
 0.000003233889   -0.000082314393    0.000000000000
 0.000003233888   -0.000080231064    0.000000000000
 0.000003218326   -0.000078125046    0.000000000000
 0.000003218326   -0.000076041718    0.000000000000
 0.000003218326   -0.000073958380    0.000000000000
 0.000003218326   -0.000071875053    0.000000000000
 0.000003218326   -0.000069791725    0.000000000000
 0.000003218326   -0.000067708387    0.000000000000
 0.000003218326   -0.000065625059    0.000000000000
 0.000003218326   -0.000063541732    0.000000000000
 0.000003218326   -0.000061458394    0.000000000000
 0.000003218326   -0.000059375066    0.000000000000
 0.000003218326   -0.000057291738    0.000000000000
 0.000003218327   -0.000055208400    0.000000000000
 0.000003218328   -0.000053125071    0.000000000000
 0.000003218328   -0.000051041741    0.000000000000
 0.000003218329   -0.000048958401    0.000000000000
 0.000003218330   -0.000046875071    0.000000000000
 0.000003218331   -0.000044791740    0.000000000000
 0.000003218331   -0.000042708398    0.000000000000
 0.000003218332   -0.000040625066    0.000000000000
 0.000003218333   -0.000038541734    0.000000000000
 0.000003218333   -0.000036458391    0.000000000000
 0.000003218334   -0.000034375058    0.000000000000
 0.000003218334   -0.000032291725    0.000000000000
 0.000003218334   -0.000030208382    0.000000000000
 0.000003218334   -0.000028125048    0.000000000000
 0.000003218334   -0.000026041715    0.000000000000
 0.000003218334   -0.000023958371    0.000000000000
 0.000003218334   -0.000021875037    0.000000000000
 0.000003235128   -0.000019764234    0.000000000000
 0.000003235128   -0.000017680900    0.000000000000
 0.000003227529   -0.000015593737    0.000000000000
 0.000003227529   -0.000013510403    0.000000000000
 0.000003246616   -0.000011366059    0.000000000000
 0.000003246616   -0.000009282726    0.000000000000
 0.000003001077   -0.000007217549    0.000000000000
 0.000003001076   -0.000005134213    0.000000000000
 0.000006002155   -0.000006101753    0.000000000000
 0.000006493230   -0.000010232108    0.000000000000
 0.000006455057   -0.000014520775    0.000000000000
 0.000006470255   -0.000018695102    0.000000000000
 0.000006436666   -0.000022916709    0.000000000000
 0.000006436666   -0.000027083376    0.000000000000
 0.000006436666   -0.000031250053    0.000000000000
 0.000006436665   -0.000035416729    0.000000000000
 0.000006436663   -0.000039583394    0.000000000000
 0.000006436660   -0.000043750068    0.000000000000
 0.000006436657   -0.000047916740    0.000000000000
 0.000006436654   -0.000052083400    0.000000000000
 0.000006436652   -0.000056250069    0.000000000000
 0.000006436650   -0.000060416735    0.000000000000
 0.000006436650   -0.000064583391    0.000000000000
 0.000006436650   -0.000068750056    0.000000000000
 0.000006436651   -0.000072916722    0.000000000000
 0.000006436651   -0.000077083378    0.000000000000
 0.000006467779   -0.000081295404    0.000000000000
 0.000006475316   -0.000085503470    0.000000000000
 0.000006484655   -0.000089736904    0.000000000000
 0.000005978059   -0.000093861271    0.000000000000
 0.000010847132   -0.000096568473    0.000000000000
 0.000018187212   -0.000096222895    0.000000000000
 0.000025793814   -0.000096311869    0.000000000000
 0.000033311096   -0.000096337226    0.000000000000
 0.000040788778   -0.000096350041    0.000000000000
 0.000048310589   -0.000096391564    0.000000000000
 0.000055816073   -0.000096372120    0.000000000000
 0.000063255650   -0.000096382982    0.000000000000
 0.000070880995   -0.000096364842    0.000000000000
 0.000078238547   -0.000096648677    0.000000000000
 0.000083067739   -0.000093918983    0.000000000000
 0.000082451305   -0.000089804073    0.000000000000
 0.000082609965   -0.000085539780    0.000000000000
 0.000082655247   -0.000081325510    0.000000000000
 0.000082675522   -0.000077134541    0.000000000000
 0.000082752214   -0.000072916657    0.000000000000
 0.000082752219   -0.000068749986    0.000000000000
 0.000082752227   -0.000064583314    0.000000000000
 0.000082752234   -0.000060416650    0.000000000000
 0.000082752240   -0.000056249979    0.000000000000
 0.000082752252   -0.000052083309    0.000000000000
 0.000082752264   -0.000047916648    0.000000000000
 0.000082752278   -0.000043749981    0.000000000000
 0.000082752295   -0.000039583315    0.000000000000
 0.000082752311   -0.000035416656    0.000000000000
 0.000082752324   -0.000031249990    0.000000000000
 0.000082752337   -0.000027083322    0.000000000000
 0.000082752347   -0.000022916662    0.000000000000
 0.000082721227   -0.000018704633    0.000000000000
 0.000082713707   -0.000014496565    0.000000000000
 0.000082704365   -0.000010263128    0.000000000000
 0.000083210965   -0.000006138751    0.000000000000
 0.000078341857   -0.000003431533    0.000000000000
 0.000071001767   -0.000003777110    0.000000000000
 0.000063395158   -0.000003688130    0.000000000000
 0.000055877863   -0.000003662788    0.000000000000
 0.000048391620   -0.000003656317    0.000000000000
 0.000040847456   -0.000003660058    0.000000000000
 0.000033281421   -0.000003679413    0.000000000000
 0.000025804522   -0.000003662769    0.000000000000
 0.000018305325   -0.000003643820    0.000000000000
 0.000010897598   -0.000003354199    0.000000000000
 0.000013599672   -0.000007666267    0.000000000000
 0.000012902501   -0.000012270462    0.000000000000
 0.000013003855   -0.000016439709    0.000000000000
 0.000013042071   -0.000020688616    0.000000000000
 0.000012984287   -0.000024935923    0.000000000000
 0.000012873332   -0.000029166719    0.000000000000
 0.000012873330   -0.000033333385    0.000000000000
 0.000012873327   -0.000037500060    0.000000000000
 0.000012873323   -0.000041666733    0.000000000000
 0.000012873318   -0.000045833396    0.000000000000
 0.000012873313   -0.000050000068    0.000000000000
 0.000012873307   -0.000054166738    0.000000000000
 0.000012873303   -0.000058333397    0.000000000000
 0.000012873300   -0.000062500064    0.000000000000
 0.000012873299   -0.000066666730    0.000000000000
 0.000012873300   -0.000070833385    0.000000000000
 0.000012873302   -0.000075000050    0.000000000000
 0.000012993114   -0.000079286436    0.000000000000
 0.000012979226   -0.000083496500    0.000000000000
 0.000012920217   -0.000087658578    0.000000000000
 0.000013557297   -0.000092272714    0.000000000000
 0.000021758428   -0.000092623845    0.000000000000
 0.000029233895   -0.000092592215    0.000000000000
 0.000036798737   -0.000092606177    0.000000000000
 0.000044468847   -0.000092658328    0.000000000000
 0.000052160042   -0.000092669312    0.000000000000
 0.000059732252   -0.000092721531    0.000000000000
 0.000067171847   -0.000092757534    0.000000000000
 0.000075404361   -0.000092399850    0.000000000000
 0.000076030920   -0.000087802167    0.000000000000
 0.000075974901   -0.000083611246    0.000000000000
 0.000075994853   -0.000079373380    0.000000000000
 0.000076133710   -0.000075100335    0.000000000000
 0.000076249073   -0.000070866190    0.000000000000
 0.000076315561   -0.000066666663    0.000000000000
 0.000076315569   -0.000062499988    0.000000000000
 0.000076315577   -0.000058333315    0.000000000000
 0.000076315588   -0.000054166660    0.000000000000
 0.000076315602   -0.000049999990    0.000000000000
 0.000076315617   -0.000045833320    0.000000000000
 0.000076315633   -0.000041666669    0.000000000000
 0.000076315649   -0.000037499998    0.000000000000
 0.000076315662   -0.000033333327    0.000000000000
 0.000076315674   -0.000029166673    0.000000000000
 0.000076315684   -0.000025000000    0.000000000000
 0.000076195912   -0.000020713607    0.000000000000
 0.000076209781   -0.000016503543    0.000000000000
 0.000076268797   -0.000012341453    0.000000000000
 0.000075631691   -0.000007727297    0.000000000000
 0.000067430550   -0.000007376159    0.000000000000
 0.000059955065   -0.000007407794    0.000000000000
 0.000052364206   -0.000007412519    0.000000000000
 0.000044640059   -0.000007397659    0.000000000000
 0.000036878095   -0.000007416166    0.000000000000
 0.000029220303   -0.000007399869    0.000000000000
 0.000021773353   -0.000007333976    0.000000000000
 0.000018529921   -0.000010537409    0.000000000000
 0.000019398159   -0.000014074655    0.000000000000
 0.000019829174   -0.000018338052    0.000000000000
 0.000019728675   -0.000022695779    0.000000000000
 0.000019552578   -0.000026988885    0.000000000000
 0.000019388326   -0.000031225260    0.000000000000
 0.000019309996   -0.000035416724    0.000000000000
 0.000019309992   -0.000039583388    0.000000000000
 0.000019309986   -0.000043750061    0.000000000000
 0.000019309980   -0.000047916733    0.000000000000
 0.000019309972   -0.000052083395    0.000000000000
 0.000019309965   -0.000056250065    0.000000000000
 0.000019309960   -0.000060416734    0.000000000000
 0.000019309956   -0.000064583392    0.000000000000
 0.000019309955   -0.000068750058    0.000000000000
 0.000019370586   -0.000072978883    0.000000000000
 0.000019522867   -0.000077277366    0.000000000000
 0.000019737361   -0.000081625936    0.000000000000
 0.000019450145   -0.000085811793    0.000000000000
 0.000018592836   -0.000089422114    0.000000000000
 0.000024973169   -0.000088845721    0.000000000000
 0.000032509017   -0.000088724449    0.000000000000
 0.000040438990   -0.000088829233    0.000000000000
 0.000048344329   -0.000088962385    0.000000000000
 0.000056288150   -0.000088909933    0.000000000000
 0.000063868941   -0.000089099232    0.000000000000
 0.000070317956   -0.000089577322    0.000000000000
 0.000069292060   -0.000085999826    0.000000000000
 0.000069053256   -0.000081774535    0.000000000000
 0.000069341448   -0.000077363321    0.000000000000
 0.000069661822   -0.000073013531    0.000000000000
 0.000069813220   -0.000068778777    0.000000000000
 0.000069878904   -0.000064583325    0.000000000000
 0.000069878914   -0.000060416667    0.000000000000
 0.000069878928   -0.000056249997    0.000000000000
 0.000069878940   -0.000052083329    0.000000000000
 0.000069878956   -0.000047916675    0.000000000000
 0.000069878973   -0.000043750007    0.000000000000
 0.000069878985   -0.000039583338    0.000000000000
 0.000069878998   -0.000035416681    0.000000000000
 0.000069879011   -0.000031250010    0.000000000000
 0.000069819941   -0.000027021178    0.000000000000
 0.000069667366   -0.000022722689    0.000000000000
 0.000069451773   -0.000018374108    0.000000000000
 0.000069738843   -0.000014188237    0.000000000000
 0.000070596149   -0.000010577906    0.000000000000
 0.000064215801   -0.000011154298    0.000000000000
 0.000056661775   -0.000011281361    0.000000000000
 0.000048667602   -0.000011212905    0.000000000000
 0.000040660495   -0.000011144588    0.000000000000
 0.000032618816   -0.000011215410    0.000000000000
 0.000024835428   -0.000011191190    0.000000000000
 0.000027414401   -0.000015556798    0.000000000000
 0.000026593556   -0.000020421675    0.000000000000
 0.000026445143   -0.000024772341    0.000000000000
 0.000025974008   -0.000029112466    0.000000000000
 0.000025746662   -0.000033333380    0.000000000000
 0.000025746657   -0.000037500053    0.000000000000
 0.000025746651   -0.000041666725    0.000000000000
 0.000025746644   -0.000045833388    0.000000000000
 0.000025746636   -0.000050000059    0.000000000000
 0.000025746628   -0.000054166730    0.000000000000
 0.000025746620   -0.000058333391    0.000000000000
 0.000025746614   -0.000062500061    0.000000000000
 0.000025746608   -0.000066666729    0.000000000000
 0.000025824645   -0.000070921255    0.000000000000
 0.000026000663   -0.000075238877    0.000000000000
 0.000026234366   -0.000079577373    0.000000000000
 0.000027357565   -0.000084422188    0.000000000000
 0.000036167145   -0.000084941865    0.000000000000
 0.000044372500   -0.000085010728    0.000000000000
 0.000052451389   -0.000085259946    0.000000000000
 0.000061219963   -0.000084679901    0.000000000000
 0.000062370436   -0.000079691069    0.000000000000
 0.000062834565   -0.000075227087    0.000000000000
 0.000063331675   -0.000070876314    0.000000000000
 0.000063442242   -0.000066666673    0.000000000000
 0.000063442254   -0.000062500004    0.000000000000
 0.000063442266   -0.000058333337    0.000000000000
 0.000063442281   -0.000054166681    0.000000000000
 0.000063442297   -0.000050000015    0.000000000000
 0.000063442310   -0.000045833348    0.000000000000
 0.000063442323   -0.000041666689    0.000000000000
 0.000063442335   -0.000037500019    0.000000000000
 0.000063442345   -0.000033333349    0.000000000000
 0.000063419148   -0.000029123177    0.000000000000
 0.000063265451   -0.000024804546    0.000000000000
 0.000062955440   -0.000020422676    0.000000000000
 0.000061831399   -0.000015577843    0.000000000000
 0.000052990947   -0.000015031057    0.000000000000
 0.000044688180   -0.000015010232    0.000000000000
 0.000036432664   -0.000014821235    0.000000000000
 0.000032689575   -0.000018440701    0.000000000000
 0.000034301842   -0.000022312605    0.000000000000
 0.000032684395   -0.000027027171    0.000000000000
 0.000032280079   -0.000031236095    0.000000000000
 0.000032183322   -0.000035416718    0.000000000000
 0.000032183316   -0.000039583380    0.000000000000
 0.000032183309   -0.000043750052    0.000000000000
 0.000032183301   -0.000047916723    0.000000000000
 0.000032183292   -0.000052083384    0.000000000000
 0.000032183284   -0.000056250055    0.000000000000
 0.000032183275   -0.000060416726    0.000000000000
 0.000032183267   -0.000064583385    0.000000000000
 0.000032212547   -0.000068808502    0.000000000000
 0.000032379676   -0.000073127835    0.000000000000
 0.000032671811   -0.000077550524    0.000000000000
 0.000032418580   -0.000081514533    0.000000000000
 0.000039999340   -0.000080433432    0.000000000000
 0.000048993698   -0.000081208639    0.000000000000
 0.000055958712   -0.000081729645    0.000000000000
 0.000054882742   -0.000077493444    0.000000000000
 0.000057005571   -0.000072916680    0.000000000000
 0.000057104455   -0.000068735300    0.000000000000
 0.000057144318   -0.000064577253    0.000000000000
 0.000057151806   -0.000060415056    0.000000000000
 0.000057153195   -0.000056249650    0.000000000000
 0.000057153476   -0.000052083275    0.000000000000
 0.000057153525   -0.000047916676    0.000000000000
 0.000057153553   -0.000043750028    0.000000000000
 0.000057153564   -0.000039583358    0.000000000000
 0.000057153573   -0.000035416696    0.000000000000
 0.000057126309   -0.000031191056    0.000000000000
 0.000056929141   -0.000026899835    0.000000000000
 0.000056629333   -0.000022451502    0.000000000000
 0.000056770365   -0.000018485509    0.000000000000
 0.000049232249   -0.000019585975    0.000000000000
 0.000040083471   -0.000018827089    0.000000000000
 0.000038727969   -0.000025684937    0.000000000000
 0.000038727090   -0.000029228450    0.000000000000
 0.000038619987   -0.000033333373    0.000000000000
 0.000038619980   -0.000037500045    0.000000000000
 0.000038619972   -0.000041666716    0.000000000000
 0.000038619964   -0.000045833377    0.000000000000
 0.000038619956   -0.000050000048    0.000000000000
 0.000038619947   -0.000054166718    0.000000000000
 0.000038619938   -0.000058333379    0.000000000000
 0.000038535572   -0.000062504218    0.000000000000
 0.000038558624   -0.000066696125    0.000000000000
 0.000038665974   -0.000070957029    0.000000000000
 0.000039137358   -0.000075380501    0.000000000000
 0.000046324136   -0.000077253141    0.000000000000
 0.000050795343   -0.000074292667    0.000000000000
 0.000050908070   -0.000070720878    0.000000000000
 0.000050933556   -0.000066647941    0.000000000000
 0.000050937816   -0.000062496905    0.000000000000
 0.000050938545   -0.000058332840    0.000000000000
 0.000050938665   -0.000054166613    0.000000000000
 0.000050938694   -0.000050000025    0.000000000000
 0.000050938704   -0.000045833365    0.000000000000
 0.000050938713   -0.000041666705    0.000000000000
 0.000050938722   -0.000037500034    0.000000000000
 0.000050938731   -0.000033333363    0.000000000000
 0.000050874864   -0.000029039922    0.000000000000
 0.000050272061   -0.000024626069    0.000000000000
 0.000043156350   -0.000022791761    0.000000000000
 0.000044770166   -0.000027064695    0.000000000000
 0.000044831254   -0.000031236088    0.000000000000
 0.000044834207   -0.000035414380    0.000000000000
 0.000044834697   -0.000039582990    0.000000000000
 0.000044834778   -0.000043749971    0.000000000000
 0.000044834788   -0.000047916692    0.000000000000
 0.000044834779   -0.000052083352    0.000000000000
 0.000044834733   -0.000056249941    0.000000000000
 0.000044834578   -0.000060416079    0.000000000000
 0.000044833725   -0.000064579615    0.000000000000
 0.000044836296   -0.000068748150    0.000000000000
 0.000045056524   -0.000072916695    0.000000000000
 0.000005003544   -0.000002805026    0.000000000000
 0.000084185502   -0.000002805018    0.000000000000
 0.000084185290   -0.000097194978    0.000000000000
 0.000005003510   -0.000097194994    0.000000000000
VECTORS   nVel   float
 0.000000000000   -0.000000000000    0.000000000000
 0.000000000000   -0.000000000000    0.000000000000
 0.000000000000   -0.000000000000    0.000000000000
 0.000000000000   -0.000000000000    0.000000000000
 0.000000000000   -0.000000000000    0.000000000000
 0.000000000000   -0.000000000000    0.000000000000
 0.000000000000   -0.000000000000    0.000000000000
 0.000000000000   -0.000000000000    0.000000000000
 0.000000000000   -0.000000000000    0.000000000000
 0.000000000000   -0.000000000000    0.000000000000
 0.000000000000   -0.000000000000    0.000000000000
 0.000000000000   -0.000000000000    0.000000000000
 0.000000000000   -0.000000000000    0.000000000000
 0.000000000000   -0.000000000000    0.000000000000
 0.000000000000   -0.000000000000    0.000000000000
 0.000000000000   -0.000000000000    0.000000000000
 0.000000000000   -0.000000000000    0.000000000000
 0.000000000000   -0.000000000000    0.000000000000
 0.000000000000   -0.000000000000    0.000000000000
 0.000000000000   -0.000000000000    0.000000000000
 0.000000000000   -0.000000000000    0.000000000000
 0.000000000000   -0.000000000000    0.000000000000
 0.000000000000   -0.000000000000    0.000000000000
 0.000000000000   -0.000000000000    0.000000000000
 0.000000000000   -0.000000000000    0.000000000000
 0.000000000000   -0.000001000000    0.000000000000
 0.000000000000   -0.000000020833    0.000000000000
 0.000000000000   -0.000000041667    0.000000000000
 0.000000000000   -0.000000062500    0.000000000000
 0.000000000000   -0.000000083333    0.000000000000
 0.000000000000   -0.000000104167    0.000000000000
 0.000000000000   -0.000000125000    0.000000000000
 0.000000000000   -0.000000145833    0.000000000000
 0.000000000000   -0.000000166667    0.000000000000
 0.000000000000   -0.000000187500    0.000000000000
 0.000000000000   -0.000000208333    0.000000000000
 0.000000000000   -0.000000229167    0.000000000000
 0.000000000000   -0.000000250000    0.000000000000
 0.000000000000   -0.000000270833    0.000000000000
 0.000000000000   -0.000000291667    0.000000000000
 0.000000000000   -0.000000312500    0.000000000000
 0.000000000000   -0.000000333333    0.000000000000
 0.000000000000   -0.000000354167    0.000000000000
 0.000000000000   -0.000000375000    0.000000000000
 0.000000000000   -0.000000395833    0.000000000000
 0.000000000000   -0.000000416667    0.000000000000
 0.000000000000   -0.000000437500    0.000000000000
 0.000000000000   -0.000000458333    0.000000000000
 0.000000000000   -0.000000479167    0.000000000000
 0.000000000000   -0.000000500000    0.000000000000
 0.000000000000   -0.000000520833    0.000000000000
 0.000000000000   -0.000000541667    0.000000000000
 0.000000000000   -0.000000562500    0.000000000000
 0.000000000000   -0.000000583333    0.000000000000
 0.000000000000   -0.000000604167    0.000000000000
 0.000000000000   -0.000000625000    0.000000000000
 0.000000000000   -0.000000645833    0.000000000000
 0.000000000000   -0.000000666667    0.000000000000
 0.000000000000   -0.000000687500    0.000000000000
 0.000000000000   -0.000000708333    0.000000000000
 0.000000000000   -0.000000729167    0.000000000000
 0.000000000000   -0.000000750000    0.000000000000
 0.000000000000   -0.000000770833    0.000000000000
 0.000000000000   -0.000000791667    0.000000000000
 0.000000000000   -0.000000812500    0.000000000000
 0.000000000000   -0.000000833333    0.000000000000
 0.000000000000   -0.000000854167    0.000000000000
 0.000000000000   -0.000000875000    0.000000000000
 0.000000000000   -0.000000895833    0.000000000000
 0.000000000000   -0.000000916667    0.000000000000
 0.000000000000   -0.000000937500    0.000000000000
 0.000000000000   -0.000000958333    0.000000000000
 0.000000000000   -0.000000979167    0.000000000000
 0.000000000000   -0.000001000000    0.000000000000
 0.000000000000   -0.000001000000    0.000000000000
 0.000000000000   -0.000001000000    0.000000000000
 0.000000000000   -0.000001000000    0.000000000000
 0.000000000000   -0.000001000000    0.000000000000
 0.000000000000   -0.000001000000    0.000000000000
 0.000000000000   -0.000001000000    0.000000000000
 0.000000000000   -0.000001000000    0.000000000000
 0.000000000000   -0.000001000000    0.000000000000
 0.000000000000   -0.000001000000    0.000000000000
 0.000000000000   -0.000001000000    0.000000000000
 0.000000000000   -0.000001000000    0.000000000000
 0.000000000000   -0.000001000000    0.000000000000
 0.000000000000   -0.000001000000    0.000000000000
 0.000000000000   -0.000001000000    0.000000000000
 0.000000000000   -0.000001000000    0.000000000000
 0.000000000000   -0.000001000000    0.000000000000
 0.000000000000   -0.000001000000    0.000000000000
 0.000000000000   -0.000001000000    0.000000000000
 0.000000000000   -0.000001000000    0.000000000000
 0.000000000000   -0.000001000000    0.000000000000
 0.000000000000   -0.000001000000    0.000000000000
 0.000000000000   -0.000001000000    0.000000000000
 0.000000000000   -0.000001000000    0.000000000000
 0.000000000000   -0.000000979167    0.000000000000
 0.000000000000   -0.000000958333    0.000000000000
 0.000000000000   -0.000000937500    0.000000000000
 0.000000000000   -0.000000916667    0.000000000000
 0.000000000000   -0.000000895833    0.000000000000
 0.000000000000   -0.000000875000    0.000000000000
 0.000000000000   -0.000000854167    0.000000000000
 0.000000000000   -0.000000833333    0.000000000000
 0.000000000000   -0.000000812500    0.000000000000
 0.000000000000   -0.000000791667    0.000000000000
 0.000000000000   -0.000000770833    0.000000000000
 0.000000000000   -0.000000750000    0.000000000000
 0.000000000000   -0.000000729167    0.000000000000
 0.000000000000   -0.000000708333    0.000000000000
 0.000000000000   -0.000000687500    0.000000000000
 0.000000000000   -0.000000666667    0.000000000000
 0.000000000000   -0.000000645833    0.000000000000
 0.000000000000   -0.000000625000    0.000000000000
 0.000000000000   -0.000000604167    0.000000000000
 0.000000000000   -0.000000583333    0.000000000000
 0.000000000000   -0.000000562500    0.000000000000
 0.000000000000   -0.000000541667    0.000000000000
 0.000000000000   -0.000000520833    0.000000000000
 0.000000000000   -0.000000500000    0.000000000000
 0.000000000000   -0.000000479167    0.000000000000
 0.000000000000   -0.000000458333    0.000000000000
 0.000000000000   -0.000000437500    0.000000000000
 0.000000000000   -0.000000416667    0.000000000000
 0.000000000000   -0.000000395833    0.000000000000
 0.000000000000   -0.000000375000    0.000000000000
 0.000000000000   -0.000000354167    0.000000000000
 0.000000000000   -0.000000333333    0.000000000000
 0.000000000000   -0.000000312500    0.000000000000
 0.000000000000   -0.000000291667    0.000000000000
 0.000000000000   -0.000000270833    0.000000000000
 0.000000000000   -0.000000250000    0.000000000000
 0.000000000000   -0.000000229167    0.000000000000
 0.000000000000   -0.000000208333    0.000000000000
 0.000000000000   -0.000000187500    0.000000000000
 0.000000000000   -0.000000166667    0.000000000000
 0.000000000000   -0.000000145833    0.000000000000
 0.000000000000   -0.000000125000    0.000000000000
 0.000000000000   -0.000000104167    0.000000000000
 0.000000000000   -0.000000083333    0.000000000000
 0.000000000000   -0.000000062500    0.000000000000
 0.000000000000   -0.000000041667    0.000000000000
 0.000000000000   -0.000000020833    0.000000000000
 0.000000000000   -0.000000205698    0.000000000000
 0.000000000000   -0.000000249282    0.000000000000
 0.000000000000   -0.000000031183    0.000000000000
 0.000000000000   -0.000000955570    0.000000000000
 0.000000000000   -0.000000968817    0.000000000000
 0.000000000000   -0.000000044534    0.000000000000
 0.000000000000   -0.000000955281    0.000000000000
 0.000000000000   -0.000000965142    0.000000000000
 0.000000000000   -0.000000985975    0.000000000000
 0.000000000000   -0.000000985975    0.000000000000
 0.000000000000   -0.000000969218    0.000000000000
 0.000000000000   -0.000000985975    0.000000000000
 0.000000000000   -0.000000965142    0.000000000000
 0.000000000000   -0.000000985975    0.000000000000
 0.000000000000   -0.000000044719    0.000000000000
 0.000000000000   -0.000000034858    0.000000000000
 0.000000000000   -0.000000014025    0.000000000000
 0.000000000000   -0.000000014025    0.000000000000
 0.000000000000   -0.000000030796    0.000000000000
 0.000000000000   -0.000000014025    0.000000000000
 0.000000000000   -0.000000034858    0.000000000000
 0.000000000000   -0.000000014025    0.000000000000
 0.000000000000   -0.000000708324    0.000000000000
 0.000000000000   -0.000000666639    0.000000000000
 0.000000000000   -0.000000624978    0.000000000000
 0.000000000000   -0.000000583330    0.000000000000
 0.000000000000   -0.000000541666    0.000000000000
 0.000000000000   -0.000000500000    0.000000000000
 0.000000000000   -0.000000458333    0.000000000000
 0.000000000000   -0.000000416664    0.000000000000
 0.000000000000   -0.000000374986    0.000000000000
 0.000000000000   -0.000000333252    0.000000000000
 0.000000000000   -0.000000291504    0.000000000000
 0.000000000000   -0.000000258453    0.000000000000
 0.000000000000   -0.000000280523    0.000000000000
 0.000000000000   -0.000000301380    0.000000000000
 0.000000000000   -0.000000322847    0.000000000000
 0.000000000000   -0.000000343738    0.000000000000
 0.000000000000   -0.000000364572    0.000000000000
 0.000000000000   -0.000000385415    0.000000000000
 0.000000000000   -0.000000406248    0.000000000000
 0.000000000000   -0.000000427083    0.000000000000
 0.000000000000   -0.000000447916    0.000000000000
 0.000000000000   -0.000000468750    0.000000000000
 0.000000000000   -0.000000489583    0.000000000000
 0.000000000000   -0.000000510417    0.000000000000
 0.000000000000   -0.000000531249    0.000000000000
 0.000000000000   -0.000000552082    0.000000000000
 0.000000000000   -0.000000572914    0.000000000000
 0.000000000000   -0.000000593744    0.000000000000
 0.000000000000   -0.000000614565    0.000000000000
 0.000000000000   -0.000000635382    0.000000000000
 0.000000000000   -0.000000656138    0.000000000000
 0.000000000000   -0.000000676980    0.000000000000
 0.000000000000   -0.000000697345    0.000000000000
 0.000000000000   -0.000000718188    0.000000000000
 0.000000000000   -0.000000736047    0.000000000000
 0.000000000000   -0.000000750849    0.000000000000
 0.000000000000   -0.000000741486    0.000000000000
 0.000000000000   -0.000000719368    0.000000000000
 0.000000000000   -0.000000698526    0.000000000000
 0.000000000000   -0.000000677221    0.000000000000
 0.000000000000   -0.000000656378    0.000000000000
 0.000000000000   -0.000000635419    0.000000000000
 0.000000000000   -0.000000614601    0.000000000000
 0.000000000000   -0.000000593747    0.000000000000
 0.000000000000   -0.000000572916    0.000000000000
 0.000000000000   -0.000000552083    0.000000000000
 0.000000000000   -0.000000531250    0.000000000000
 0.000000000000   -0.000000510417    0.000000000000
 0.000000000000   -0.000000489583    0.000000000000
 0.000000000000   -0.000000468750    0.000000000000
 0.000000000000   -0.000000447916    0.000000000000
 0.000000000000   -0.000000427083    0.000000000000
 0.000000000000   -0.000000406248    0.000000000000
 0.000000000000   -0.000000385415    0.000000000000
 0.000000000000   -0.000000364572    0.000000000000
 0.000000000000   -0.000000343738    0.000000000000
 0.000000000000   -0.000000322847    0.000000000000
 0.000000000000   -0.000000302322    0.000000000000
 0.000000000000   -0.000000281465    0.000000000000
 0.000000000000   -0.000000263748    0.000000000000
 0.000000000000   -0.000000237089    0.000000000000
 0.000000000000   -0.000000221060    0.000000000000
 0.000000000000   -0.000000268330    0.000000000000
 0.000000000000   -0.000000311866    0.000000000000
 0.000000000000   -0.000000354167    0.000000000000
 0.000000000000   -0.000000395833    0.000000000000
 0.000000000000   -0.000000437500    0.000000000000
 0.000000000000   -0.000000479167    0.000000000000
 0.000000000000   -0.000000520833    0.000000000000
 0.000000000000   -0.000000562497    0.000000000000
 0.000000000000   -0.000000604148    0.000000000000
 0.000000000000   -0.000000645724    0.000000000000
 0.000000000000   -0.000000686844    0.000000000000
 0.000000000000   -0.000000725068    0.000000000000
 0.000000000000   -0.000000757729    0.000000000000
 0.000000000000   -0.000000773733    0.000000000000
 0.000000000000   -0.000000763168    0.000000000000
 0.000000000000   -0.000000779069    0.000000000000
 0.000000000000   -0.000000731687    0.000000000000
 0.000000000000   -0.000000688265    0.000000000000
 0.000000000000   -0.000000646001    0.000000000000
 0.000000000000   -0.000000604188    0.000000000000
 0.000000000000   -0.000000562500    0.000000000000
 0.000000000000   -0.000000520833    0.000000000000
 0.000000000000   -0.000000479167    0.000000000000
 0.000000000000   -0.000000437500    0.000000000000
 0.000000000000   -0.000000395833    0.000000000000
 0.000000000000   -0.000000354167    0.000000000000
 0.000000000000   -0.000000312809    0.000000000000
 0.000000000000   -0.000000274567    0.000000000000
 0.000000000000   -0.000000242383    0.000000000000
 0.000000000000   -0.000000225522    0.000000000000
 0.000000000000   -0.000000208094    0.000000000000
 0.000000000000   -0.000000211888    0.000000000000
 0.000000000000   -0.000000210187    0.000000000000
 0.000000000000   -0.000000235388    0.000000000000
 0.000000000000   -0.000000257629    0.000000000000
 0.000000000000   -0.000000279699    0.000000000000
 0.000000000000   -0.000000301155    0.000000000000
 0.000000000000   -0.000000322622    0.000000000000
 0.000000000000   -0.000000343750    0.000000000000
 0.000000000000   -0.000000364583    0.000000000000
 0.000000000000   -0.000000385417    0.000000000000
 0.000000000000   -0.000000406250    0.000000000000
 0.000000000000   -0.000000427083    0.000000000000
 0.000000000000   -0.000000447917    0.000000000000
 0.000000000000   -0.000000468750    0.000000000000
 0.000000000000   -0.000000489583    0.000000000000
 0.000000000000   -0.000000510416    0.000000000000
 0.000000000000   -0.000000531249    0.000000000000
 0.000000000000   -0.000000552081    0.000000000000
 0.000000000000   -0.000000572912    0.000000000000
 0.000000000000   -0.000000593739    0.000000000000
 0.000000000000   -0.000000614560    0.000000000000
 0.000000000000   -0.000000635371    0.000000000000
 0.000000000000   -0.000000656126    0.000000000000
 0.000000000000   -0.000000676916    0.000000000000
 0.000000000000   -0.000000697281    0.000000000000
 0.000000000000   -0.000000718188    0.000000000000
 0.000000000000   -0.000000736047    0.000000000000
 0.000000000000   -0.000000758930    0.000000000000
 0.000000000000   -0.000000793510    0.000000000000
 0.000000000000   -0.000000792309    0.000000000000
 0.000000000000   -0.000000788433    0.000000000000
 0.000000000000   -0.000000789919    0.000000000000
 0.000000000000   -0.000000764655    0.000000000000
 0.000000000000   -0.000000742541    0.000000000000
 0.000000000000   -0.000000720424    0.000000000000
 0.000000000000   -0.000000698827    0.000000000000
 0.000000000000   -0.000000677523    0.000000000000
 0.000000000000   -0.000000656397    0.000000000000
 0.000000000000   -0.000000635437    0.000000000000
 0.000000000000   -0.000000614604    0.000000000000
 0.000000000000   -0.000000593750    0.000000000000
 0.000000000000   -0.000000572917    0.000000000000
 0.000000000000   -0.000000552083    0.000000000000
 0.000000000000   -0.000000531250    0.000000000000
 0.000000000000   -0.000000510417    0.000000000000
 0.000000000000   -0.000000489583    0.000000000000
 0.000000000000   -0.000000468750    0.000000000000
 0.000000000000   -0.000000447917    0.000000000000
 0.000000000000   -0.000000427083    0.000000000000
 0.000000000000   -0.000000406250    0.000000000000
 0.000000000000   -0.000000385417    0.000000000000
 0.000000000000   -0.000000364583    0.000000000000
 0.000000000000   -0.000000343750    0.000000000000
 0.000000000000   -0.000000322847    0.000000000000
 0.000000000000   -0.000000302322    0.000000000000
 0.000000000000   -0.000000281278    0.000000000000
 0.000000000000   -0.000000263560    0.000000000000
 0.000000000000   -0.000000239987    0.000000000000
 0.000000000000   -0.000000186339    0.000000000000
 0.000000000000   -0.000000192065    0.000000000000
 0.000000000000   -0.000000190357    0.000000000000
 0.000000000000   -0.000000204685    0.000000000000
 0.000000000000   -0.000000246756    0.000000000000
 0.000000000000   -0.000000290454    0.000000000000
 0.000000000000   -0.000000333038    0.000000000000
 0.000000000000   -0.000000375000    0.000000000000
 0.000000000000   -0.000000416667    0.000000000000
 0.000000000000   -0.000000458333    0.000000000000
 0.000000000000   -0.000000499999    0.000000000000
 0.000000000000   -0.000000541664    0.000000000000
 0.000000000000   -0.000000583323    0.000000000000
 0.000000000000   -0.000000624961    0.000000000000
 0.000000000000   -0.000000666563    0.000000000000
 0.000000000000   -0.000000708260    0.000000000000
 0.000000000000   -0.000000752050    0.000000000000
 0.000000000000   -0.000000796115    0.000000000000
 0.000000000000   -0.000000814691    0.000000000000
 0.000000000000   -0.000000808210    0.000000000000
 0.000000000000   -0.000000809740    0.000000000000
 0.000000000000   -0.000000795325    0.000000000000
 0.000000000000   -0.000000753391    0.000000000000
 0.000000000000   -0.000000709681    0.000000000000
 0.000000000000   -0.000000666959    0.000000000000
 0.000000000000   -0.000000625000    0.000000000000
 0.000000000000   -0.000000583333    0.000000000000
 0.000000000000   -0.000000541667    0.000000000000
 0.000000000000   -0.000000500000    0.000000000000
 0.000000000000   -0.000000458333    0.000000000000
 0.000000000000   -0.000000416667    0.000000000000
 0.000000000000   -0.000000375000    0.000000000000
 0.000000000000   -0.000000333264    0.000000000000
 0.000000000000   -0.000000291316    0.000000000000
 0.000000000000   -0.000000246699    0.000000000000
 0.000000000000   -0.000000203766    0.000000000000
 0.000000000000   -0.000000166309    0.000000000000
 0.000000000000   -0.000000168241    0.000000000000
 0.000000000000   -0.000000169186    0.000000000000
 0.000000000000   -0.000000172981    0.000000000000
 0.000000000000   -0.000000173085    0.000000000000
 0.000000000000   -0.000000167583    0.000000000000
 0.000000000000   -0.000000170317    0.000000000000
 0.000000000000   -0.000000194541    0.000000000000
 0.000000000000   -0.000000214371    0.000000000000
 0.000000000000   -0.000000236280    0.000000000000
 0.000000000000   -0.000000258522    0.000000000000
 0.000000000000   -0.000000280115    0.000000000000
 0.000000000000   -0.000000301571    0.000000000000
 0.000000000000   -0.000000322622    0.000000000000
 0.000000000000   -0.000000343750    0.000000000000
 0.000000000000   -0.000000364583    0.000000000000
 0.000000000000   -0.000000385417    0.000000000000
 0.000000000000   -0.000000406250    0.000000000000
 0.000000000000   -0.000000427083    0.000000000000
 0.000000000000   -0.000000447917    0.000000000000
 0.000000000000   -0.000000468750    0.000000000000
 0.000000000000   -0.000000489583    0.000000000000
 0.000000000000   -0.000000510416    0.000000000000
 0.000000000000   -0.000000531250    0.000000000000
 0.000000000000   -0.000000552081    0.000000000000
 0.000000000000   -0.000000572915    0.000000000000
 0.000000000000   -0.000000593742    0.000000000000
 0.000000000000   -0.000000614575    0.000000000000
 0.000000000000   -0.000000635386    0.000000000000
 0.000000000000   -0.000000656219    0.000000000000
 0.000000000000   -0.000000677010    0.000000000000
 0.000000000000   -0.000000698058    0.000000000000
 0.000000000000   -0.000000718965    0.000000000000
 0.000000000000   -0.000000740719    0.000000000000
 0.000000000000   -0.000000763603    0.000000000000
 0.000000000000   -0.000000785922    0.000000000000
 0.000000000000   -0.000000807103    0.000000000000
 0.000000000000   -0.000000832048    0.000000000000
 0.000000000000   -0.000000834948    0.000000000000
 0.000000000000   -0.000000832343    0.000000000000
 0.000000000000   -0.000000831097    0.000000000000
 0.000000000000   -0.000000827221    0.000000000000
 0.000000000000   -0.000000826876    0.000000000000
 0.000000000000   -0.000000832282    0.000000000000
 0.000000000000   -0.000000829683    0.000000000000
 0.000000000000   -0.000000805459    0.000000000000
 0.000000000000   -0.000000785639    0.000000000000
 0.000000000000   -0.000000763947    0.000000000000
 0.000000000000   -0.000000741833    0.000000000000
 0.000000000000   -0.000000720245    0.000000000000
 0.000000000000   -0.000000698648    0.000000000000
 0.000000000000   -0.000000677376    0.000000000000
 0.000000000000   -0.000000656250    0.000000000000
 0.000000000000   -0.000000635417    0.000000000000
 0.000000000000   -0.000000614583    0.000000000000
 0.000000000000   -0.000000593750    0.000000000000
 0.000000000000   -0.000000572917    0.000000000000
 0.000000000000   -0.000000552083    0.000000000000
 0.000000000000   -0.000000531250    0.000000000000
 0.000000000000   -0.000000510417    0.000000000000
 0.000000000000   -0.000000489583    0.000000000000
 0.000000000000   -0.000000468750    0.000000000000
 0.000000000000   -0.000000447917    0.000000000000
 0.000000000000   -0.000000427083    0.000000000000
 0.000000000000   -0.000000406250    0.000000000000
 0.000000000000   -0.000000385417    0.000000000000
 0.000000000000   -0.000000364583    0.000000000000
 0.000000000000   -0.000000343750    0.000000000000
 0.000000000000   -0.000000322847    0.000000000000
 0.000000000000   -0.000000301742    0.000000000000
 0.000000000000   -0.000000280698    0.000000000000
 0.000000000000   -0.000000258997    0.000000000000
 0.000000000000   -0.000000235424    0.000000000000
 0.000000000000   -0.000000213671    0.000000000000
 0.000000000000   -0.000000194312    0.000000000000
 0.000000000000   -0.000000169987    0.000000000000
 0.000000000000   -0.000000151890    0.000000000000
 0.000000000000   -0.000000149157    0.000000000000
 0.000000000000   -0.000000150206    0.000000000000
 0.000000000000   -0.000000153044    0.000000000000
 0.000000000000   -0.000000180002    0.000000000000
 0.000000000000   -0.000000226136    0.000000000000
 0.000000000000   -0.000000269638    0.000000000000
 0.000000000000   -0.000000312283    0.000000000000
 0.000000000000   -0.000000354167    0.000000000000
 0.000000000000   -0.000000395833    0.000000000000
 0.000000000000   -0.000000437500    0.000000000000
 0.000000000000   -0.000000479167    0.000000000000
 0.000000000000   -0.000000520833    0.000000000000
 0.000000000000   -0.000000562500    0.000000000000
 0.000000000000   -0.000000604167    0.000000000000
 0.000000000000   -0.000000645833    0.000000000000
 0.000000000000   -0.000000687715    0.000000000000
 0.000000000000   -0.000000730517    0.000000000000
 0.000000000000   -0.000000774591    0.000000000000
 0.000000000000   -0.000000821855    0.000000000000
 0.000000000000   -0.000000849699    0.000000000000
 0.000000000000   -0.000000851353    0.000000000000
 0.000000000000   -0.000000849763    0.000000000000
 0.000000000000   -0.000000846820    0.000000000000
 0.000000000000   -0.000000819998    0.000000000000
 0.000000000000   -0.000000774081    0.000000000000
 0.000000000000   -0.000000730800    0.000000000000
 0.000000000000   -0.000000687939    0.000000000000
 0.000000000000   -0.000000645833    0.000000000000
 0.000000000000   -0.000000604167    0.000000000000
 0.000000000000   -0.000000562500    0.000000000000
 0.000000000000   -0.000000520833    0.000000000000
 0.000000000000   -0.000000479167    0.000000000000
 0.000000000000   -0.000000437500    0.000000000000
 0.000000000000   -0.000000395833    0.000000000000
 0.000000000000   -0.000000354167    0.000000000000
 0.000000000000   -0.000000312229    0.000000000000
 0.000000000000   -0.000000269424    0.000000000000
 0.000000000000   -0.000000225970    0.000000000000
 0.000000000000   -0.000000179892    0.000000000000
 0.000000000000   -0.000000133740    0.000000000000
 0.000000000000   -0.000000133861    0.000000000000
 0.000000000000   -0.000000130183    0.000000000000
 0.000000000000   -0.000000129829    0.000000000000
 0.000000000000   -0.000000130774    0.000000000000
 0.000000000000   -0.000000131116    0.000000000000
 0.000000000000   -0.000000131220    0.000000000000
 0.000000000000   -0.000000131562    0.000000000000
 0.000000000000   -0.000000134296    0.000000000000
 0.000000000000   -0.000000133661    0.000000000000
 0.000000000000   -0.000000126713    0.000000000000
 0.000000000000   -0.000000148830    0.000000000000
 0.000000000000   -0.000000169760    0.000000000000
 0.000000000000   -0.000000193984    0.000000000000
 0.000000000000   -0.000000215727    0.000000000000
 0.000000000000   -0.000000237636    0.000000000000
 0.000000000000   -0.000000259128    0.000000000000
 0.000000000000   -0.000000280722    0.000000000000
 0.000000000000   -0.000000301866    0.000000000000
 0.000000000000   -0.000000322917    0.000000000000
 0.000000000000   -0.000000343750    0.000000000000
 0.000000000000   -0.000000364583    0.000000000000
 0.000000000000   -0.000000385417    0.000000000000
 0.000000000000   -0.000000406250    0.000000000000
 0.000000000000   -0.000000427083    0.000000000000
 0.000000000000   -0.000000447917    0.000000000000
 0.000000000000   -0.000000468750    0.000000000000
 0.000000000000   -0.000000489583    0.000000000000
 0.000000000000   -0.000000510417    0.000000000000
 0.000000000000   -0.000000531250    0.000000000000
 0.000000000000   -0.000000552083    0.000000000000
 0.000000000000   -0.000000572917    0.000000000000
 0.000000000000   -0.000000593750    0.000000000000
 0.000000000000   -0.000000614583    0.000000000000
 0.000000000000   -0.000000635417    0.000000000000
 0.000000000000   -0.000000656250    0.000000000000
 0.000000000000   -0.000000677227    0.000000000000
 0.000000000000   -0.000000698276    0.000000000000
 0.000000000000   -0.000000719449    0.000000000000
 0.000000000000   -0.000000741203    0.000000000000
 0.000000000000   -0.000000762952    0.000000000000
 0.000000000000   -0.000000785272    0.000000000000
 0.000000000000   -0.000000807328    0.000000000000
 0.000000000000   -0.000000832272    0.000000000000
 0.000000000000   -0.000000853399    0.000000000000
 0.000000000000   -0.000000875495    0.000000000000
 0.000000000000   -0.000000868896    0.000000000000
 0.000000000000   -0.000000867949    0.000000000000
 0.000000000000   -0.000000870849    0.000000000000
 0.000000000000   -0.000000871112    0.000000000000
 0.000000000000   -0.000000869865    0.000000000000
 0.000000000000   -0.000000869200    0.000000000000
 0.000000000000   -0.000000868855    0.000000000000
 0.000000000000   -0.000000868331    0.000000000000
 0.000000000000   -0.000000865733    0.000000000000
 0.000000000000   -0.000000866339    0.000000000000
 0.000000000000   -0.000000873287    0.000000000000
 0.000000000000   -0.000000851170    0.000000000000
 0.000000000000   -0.000000830240    0.000000000000
 0.000000000000   -0.000000806016    0.000000000000
 0.000000000000   -0.000000784273    0.000000000000
 0.000000000000   -0.000000762581    0.000000000000
 0.000000000000   -0.000000741088    0.000000000000
 0.000000000000   -0.000000719500    0.000000000000
 0.000000000000   -0.000000698356    0.000000000000
 0.000000000000   -0.000000677083    0.000000000000
 0.000000000000   -0.000000656250    0.000000000000
 0.000000000000   -0.000000635417    0.000000000000
 0.000000000000   -0.000000614583    0.000000000000
 0.000000000000   -0.000000593750    0.000000000000
 0.000000000000   -0.000000572917    0.000000000000
 0.000000000000   -0.000000552083    0.000000000000
 0.000000000000   -0.000000531250    0.000000000000
 0.000000000000   -0.000000510417    0.000000000000
 0.000000000000   -0.000000489583    0.000000000000
 0.000000000000   -0.000000468750    0.000000000000
 0.000000000000   -0.000000447917    0.000000000000
 0.000000000000   -0.000000427083    0.000000000000
 0.000000000000   -0.000000406250    0.000000000000
 0.000000000000   -0.000000385417    0.000000000000
 0.000000000000   -0.000000364583    0.000000000000
 0.000000000000   -0.000000343750    0.000000000000
 0.000000000000   -0.000000322793    0.000000000000
 0.000000000000   -0.000000301688    0.000000000000
 0.000000000000   -0.000000280506    0.000000000000
 0.000000000000   -0.000000258806    0.000000000000
 0.000000000000   -0.000000237340    0.000000000000
 0.000000000000   -0.000000215587    0.000000000000
 0.000000000000   -0.000000193798    0.000000000000
 0.000000000000   -0.000000169474    0.000000000000
 0.000000000000   -0.000000148157    0.000000000000
 0.000000000000   -0.000000126329    0.000000000000
 0.000000000000   -0.000000108643    0.000000000000
 0.000000000000   -0.000000112033    0.000000000000
 0.000000000000   -0.000000111800    0.000000000000
 0.000000000000   -0.000000111787    0.000000000000
 0.000000000000   -0.000000112471    0.000000000000
 0.000000000000   -0.000000112178    0.000000000000
 0.000000000000   -0.000000108661    0.000000000000
 0.000000000000   -0.000000123831    0.000000000000
 0.000000000000   -0.000000162812    0.000000000000
 0.000000000000   -0.000000205484    0.000000000000
 0.000000000000   -0.000000248719    0.000000000000
 0.000000000000   -0.000000291356    0.000000000000
 0.000000000000   -0.000000333333    0.000000000000
 0.000000000000   -0.000000375000    0.000000000000
 0.000000000000   -0.000000416667    0.000000000000
 0.000000000000   -0.000000458333    0.000000000000
 0.000000000000   -0.000000500000    0.000000000000
 0.000000000000   -0.000000541667    0.000000000000
 0.000000000000   -0.000000583333    0.000000000000
 0.000000000000   -0.000000625000    0.000000000000
 0.000000000000   -0.000000666811    0.000000000000
 0.000000000000   -0.000000708962    0.000000000000
 0.000000000000   -0.000000751884    0.000000000000
 0.000000000000   -0.000000795689    0.000000000000
 0.000000000000   -0.000000838872    0.000000000000
 0.000000000000   -0.000000877886    0.000000000000
 0.000000000000   -0.000000893383    0.000000000000
 0.000000000000   -0.000000890046    0.000000000000
 0.000000000000   -0.000000889362    0.000000000000
 0.000000000000   -0.000000888958    0.000000000000
 0.000000000000   -0.000000887768    0.000000000000
 0.000000000000   -0.000000887851    0.000000000000
 0.000000000000   -0.000000891339    0.000000000000
 0.000000000000   -0.000000876169    0.000000000000
 0.000000000000   -0.000000837188    0.000000000000
 0.000000000000   -0.000000794516    0.000000000000
 0.000000000000   -0.000000751281    0.000000000000
 0.000000000000   -0.000000708644    0.000000000000
 0.000000000000   -0.000000666667    0.000000000000
 0.000000000000   -0.000000625000    0.000000000000
 0.000000000000   -0.000000583333    0.000000000000
 0.000000000000   -0.000000541667    0.000000000000
 0.000000000000   -0.000000500000    0.000000000000
 0.000000000000   -0.000000458333    0.000000000000
 0.000000000000   -0.000000416667    0.000000000000
 0.000000000000   -0.000000375000    0.000000000000
 0.000000000000   -0.000000333209    0.000000000000
 0.000000000000   -0.000000291070    0.000000000000
 0.000000000000   -0.000000248423    0.000000000000
 0.000000000000   -0.000000205169    0.000000000000
 0.000000000000   -0.000000162063    0.000000000000
 0.000000000000   -0.000000123060    0.000000000000
 0.000000000000   -0.000000089357    0.000000000000
 0.000000000000   -0.000000092626    0.000000000000
 0.000000000000   -0.000000092955    0.000000000000
 0.000000000000   -0.000000093076    0.000000000000
 0.000000000000   -0.000000093158    0.000000000000
 0.000000000000   -0.000000092804    0.000000000000
 0.000000000000   -0.000000092711    0.000000000000
 0.000000000000   -0.000000093053    0.000000000000
 0.000000000000   -0.000000093127    0.000000000000
 0.000000000000   -0.000000093469    0.000000000000
 0.000000000000   -0.000000093446    0.000000000000
 0.000000000000   -0.000000092810    0.000000000000
 0.000000000000   -0.000000092652    0.000000000000
 0.000000000000   -0.000000089770    0.000000000000
 0.000000000000   -0.000000091526    0.000000000000
 0.000000000000   -0.000000114597    0.000000000000
 0.000000000000   -0.000000132648    0.000000000000
 0.000000000000   -0.000000153459    0.000000000000
 0.000000000000   -0.000000174388    0.000000000000
 0.000000000000   -0.000000195438    0.000000000000
 0.000000000000   -0.000000217181    0.000000000000
 0.000000000000   -0.000000238613    0.000000000000
 0.000000000000   -0.000000260106    0.000000000000
 0.000000000000   -0.000000280939    0.000000000000
 0.000000000000   -0.000000302083    0.000000000000
 0.000000000000   -0.000000322917    0.000000000000
 0.000000000000   -0.000000343750    0.000000000000
 0.000000000000   -0.000000364583    0.000000000000
 0.000000000000   -0.000000385417    0.000000000000
 0.000000000000   -0.000000406250    0.000000000000
 0.000000000000   -0.000000427083    0.000000000000
 0.000000000000   -0.000000447917    0.000000000000
 0.000000000000   -0.000000468750    0.000000000000
 0.000000000000   -0.000000489583    0.000000000000
 0.000000000000   -0.000000510417    0.000000000000
 0.000000000000   -0.000000531250    0.000000000000
 0.000000000000   -0.000000552083    0.000000000000
 0.000000000000   -0.000000572917    0.000000000000
 0.000000000000   -0.000000593750    0.000000000000
 0.000000000000   -0.000000614583    0.000000000000
 0.000000000000   -0.000000635417    0.000000000000
 0.000000000000   -0.000000656250    0.000000000000
 0.000000000000   -0.000000677227    0.000000000000
 0.000000000000   -0.000000698225    0.000000000000
 0.000000000000   -0.000000719399    0.000000000000
 0.000000000000   -0.000000740569    0.000000000000
 0.000000000000   -0.000000762318    0.000000000000
 0.000000000000   -0.000000783683    0.000000000000
 0.000000000000   -0.000000805740    0.000000000000
 0.000000000000   -0.000000826929    0.000000000000
 0.000000000000   -0.000000848055    0.000000000000
 0.000000000000   -0.000000869010    0.000000000000
 0.000000000000   -0.000000886897    0.000000000000
 0.000000000000   -0.000000909886    0.000000000000
 0.000000000000   -0.000000911674    0.000000000000
 0.000000000000   -0.000000909284    0.000000000000
 0.000000000000   -0.000000909104    0.000000000000
 0.000000000000   -0.000000908157    0.000000000000
 0.000000000000   -0.000000907896    0.000000000000
 0.000000000000   -0.000000908158    0.000000000000
 0.000000000000   -0.000000908104    0.000000000000
 0.000000000000   -0.000000907438    0.000000000000
 0.000000000000   -0.000000907177    0.000000000000
 0.000000000000   -0.000000906653    0.000000000000
 0.000000000000   -0.000000906583    0.000000000000
 0.000000000000   -0.000000907190    0.000000000000
 0.000000000000   -0.000000907348    0.000000000000
 0.000000000000   -0.000000910230    0.000000000000
 0.000000000000   -0.000000908474    0.000000000000
 0.000000000000   -0.000000885403    0.000000000000
 0.000000000000   -0.000000867352    0.000000000000
 0.000000000000   -0.000000846541    0.000000000000
 0.000000000000   -0.000000825612    0.000000000000
 0.000000000000   -0.000000804561    0.000000000000
 0.000000000000   -0.000000782819    0.000000000000
 0.000000000000   -0.000000761387    0.000000000000
 0.000000000000   -0.000000739894    0.000000000000
 0.000000000000   -0.000000719061    0.000000000000
 0.000000000000   -0.000000697917    0.000000000000
 0.000000000000   -0.000000677083    0.000000000000
 0.000000000000   -0.000000656250    0.000000000000
 0.000000000000   -0.000000635417    0.000000000000
 0.000000000000   -0.000000614583    0.000000000000
 0.000000000000   -0.000000593750    0.000000000000
 0.000000000000   -0.000000572917    0.000000000000
 0.000000000000   -0.000000552083    0.000000000000
 0.000000000000   -0.000000531250    0.000000000000
 0.000000000000   -0.000000510417    0.000000000000
 0.000000000000   -0.000000489583    0.000000000000
 0.000000000000   -0.000000468750    0.000000000000
 0.000000000000   -0.000000447917    0.000000000000
 0.000000000000   -0.000000427083    0.000000000000
 0.000000000000   -0.000000406250    0.000000000000
 0.000000000000   -0.000000385417    0.000000000000
 0.000000000000   -0.000000364583    0.000000000000
 0.000000000000   -0.000000343750    0.000000000000
 0.000000000000   -0.000000322793    0.000000000000
 0.000000000000   -0.000000301959    0.000000000000
 0.000000000000   -0.000000280777    0.000000000000
 0.000000000000   -0.000000259624    0.000000000000
 0.000000000000   -0.000000238158    0.000000000000
 0.000000000000   -0.000000216922    0.000000000000
 0.000000000000   -0.000000195133    0.000000000000
 0.000000000000   -0.000000173888    0.000000000000
 0.000000000000   -0.000000152572    0.000000000000
 0.000000000000   -0.000000131725    0.000000000000
 0.000000000000   -0.000000114039    0.000000000000
 0.000000000000   -0.000000091018    0.000000000000
 0.000000000000   -0.000000075001    0.000000000000
 0.000000000000   -0.000000073669    0.000000000000
 0.000000000000   -0.000000074080    0.000000000000
 0.000000000000   -0.000000074069    0.000000000000
 0.000000000000   -0.000000074051    0.000000000000
 0.000000000000   -0.000000074101    0.000000000000
 0.000000000000   -0.000000073920    0.000000000000
 0.000000000000   -0.000000075517    0.000000000000
 0.000000000000   -0.000000100344    0.000000000000
 0.000000000000   -0.000000144225    0.000000000000
 0.000000000000   -0.000000186086    0.000000000000
 0.000000000000   -0.000000228568    0.000000000000
 0.000000000000   -0.000000270833    0.000000000000
 0.000000000000   -0.000000312500    0.000000000000
 0.000000000000   -0.000000354167    0.000000000000
 0.000000000000   -0.000000395833    0.000000000000
 0.000000000000   -0.000000437500    0.000000000000
 0.000000000000   -0.000000479167    0.000000000000
 0.000000000000   -0.000000520833    0.000000000000
 0.000000000000   -0.000000562500    0.000000000000
 0.000000000000   -0.000000604167    0.000000000000
 0.000000000000   -0.000000645833    0.000000000000
 0.000000000000   -0.000000687664    0.000000000000
 0.000000000000   -0.000000729833    0.000000000000
 0.000000000000   -0.000000772369    0.000000000000
 0.000000000000   -0.000000814923    0.000000000000
 0.000000000000   -0.000000857067    0.000000000000
 0.000000000000   -0.000000901010    0.000000000000
 0.000000000000   -0.000000925787    0.000000000000
 0.000000000000   -0.000000927395    0.000000000000
 0.000000000000   -0.000000926954    0.000000000000
 0.000000000000   -0.000000926638    0.000000000000
 0.000000000000   -0.000000926322    0.000000000000
 0.000000000000   -0.000000925992    0.000000000000
 0.000000000000   -0.000000926080    0.000000000000
 0.000000000000   -0.000000924483    0.000000000000
 0.000000000000   -0.000000899656    0.000000000000
 0.000000000000   -0.000000855775    0.000000000000
 0.000000000000   -0.000000813914    0.000000000000
 0.000000000000   -0.000000771432    0.000000000000
 0.000000000000   -0.000000729167    0.000000000000
 0.000000000000   -0.000000687500    0.000000000000
 0.000000000000   -0.000000645833    0.000000000000
 0.000000000000   -0.000000604167    0.000000000000
 0.000000000000   -0.000000562500    0.000000000000
 0.000000000000   -0.000000520833    0.000000000000
 0.000000000000   -0.000000479167    0.000000000000
 0.000000000000   -0.000000437500    0.000000000000
 0.000000000000   -0.000000395833    0.000000000000
 0.000000000000   -0.000000354167    0.000000000000
 0.000000000000   -0.000000312500    0.000000000000
 0.000000000000   -0.000000270513    0.000000000000
 0.000000000000   -0.000000228122    0.000000000000
 0.000000000000   -0.000000185641    0.000000000000
 0.000000000000   -0.000000143551    0.000000000000
 0.000000000000   -0.000000099683    0.000000000000
 0.000000000000   -0.000000056550    0.000000000000
 0.000000000000   -0.000000054889    0.000000000000
 0.000000000000   -0.000000054984    0.000000000000
 0.000000000000   -0.000000055313    0.000000000000
 0.000000000000   -0.000000055396    0.000000000000
 0.000000000000   -0.000000055478    0.000000000000
 0.000000000000   -0.000000055381    0.000000000000
 0.000000000000   -0.000000055288    0.000000000000
 0.000000000000   -0.000000055270    0.000000000000
 0.000000000000   -0.000000055344    0.000000000000
 0.000000000000   -0.000000055376    0.000000000000
 0.000000000000   -0.000000055353    0.000000000000
 0.000000000000   -0.000000055480    0.000000000000
 0.000000000000   -0.000000055321    0.000000000000
 0.000000000000   -0.000000055766    0.000000000000
 0.000000000000   -0.000000057522    0.000000000000
 0.000000000000   -0.000000055794    0.000000000000
 0.000000000000   -0.000000069330    0.000000000000
 0.000000000000   -0.000000089952    0.000000000000
 0.000000000000   -0.000000113023    0.000000000000
 0.000000000000   -0.000000134190    0.000000000000
 0.000000000000   -0.000000155001    0.000000000000
 0.000000000000   -0.000000176041    0.000000000000
 0.000000000000   -0.000000197091    0.000000000000
 0.000000000000   -0.000000218151    0.000000000000
 0.000000000000   -0.000000239583    0.000000000000
 0.000000000000   -0.000000260417    0.000000000000
 0.000000000000   -0.000000281250    0.000000000000
 0.000000000000   -0.000000302083    0.000000000000
 0.000000000000   -0.000000322917    0.000000000000
 0.000000000000   -0.000000343750    0.000000000000
 0.000000000000   -0.000000364583    0.000000000000
 0.000000000000   -0.000000385417    0.000000000000
 0.000000000000   -0.000000406250    0.000000000000
 0.000000000000   -0.000000427083    0.000000000000
 0.000000000000   -0.000000447917    0.000000000000
 0.000000000000   -0.000000468750    0.000000000000
 0.000000000000   -0.000000489583    0.000000000000
 0.000000000000   -0.000000510417    0.000000000000
 0.000000000000   -0.000000531250    0.000000000000
 0.000000000000   -0.000000552083    0.000000000000
 0.000000000000   -0.000000572917    0.000000000000
 0.000000000000   -0.000000593750    0.000000000000
 0.000000000000   -0.000000614583    0.000000000000
 0.000000000000   -0.000000635417    0.000000000000
 0.000000000000   -0.000000656250    0.000000000000
 0.000000000000   -0.000000677083    0.000000000000
 0.000000000000   -0.000000698081    0.000000000000
 0.000000000000   -0.000000718914    0.000000000000
 0.000000000000   -0.000000740085    0.000000000000
 0.000000000000   -0.000000761175    0.000000000000
 0.000000000000   -0.000000782540    0.000000000000
 0.000000000000   -0.000000803494    0.000000000000
 0.000000000000   -0.000000824684    0.000000000000
 0.000000000000   -0.000000845755    0.000000000000
 0.000000000000   -0.000000866710    0.000000000000
 0.000000000000   -0.000000888031    0.000000000000
 0.000000000000   -0.000000911020    0.000000000000
 0.000000000000   -0.000000931594    0.000000000000
 0.000000000000   -0.000000945243    0.000000000000
 0.000000000000   -0.000000943823    0.000000000000
 0.000000000000   -0.000000945612    0.000000000000
 0.000000000000   -0.000000945703    0.000000000000
 0.000000000000   -0.000000945522    0.000000000000
 0.000000000000   -0.000000945468    0.000000000000
 0.000000000000   -0.000000945207    0.000000000000
 0.000000000000   -0.000000945304    0.000000000000
 0.000000000000   -0.000000945249    0.000000000000
 0.000000000000   -0.000000945042    0.000000000000
 0.000000000000   -0.000000944781    0.000000000000
 0.000000000000   -0.000000944717    0.000000000000
 0.000000000000   -0.000000944647    0.000000000000
 0.000000000000   -0.000000944520    0.000000000000
 0.000000000000   -0.000000944679    0.000000000000
 0.000000000000   -0.000000944234    0.000000000000
 0.000000000000   -0.000000942478    0.000000000000
 0.000000000000   -0.000000944206    0.000000000000
 0.000000000000   -0.000000930670    0.000000000000
 0.000000000000   -0.000000910048    0.000000000000
 0.000000000000   -0.000000886977    0.000000000000
 0.000000000000   -0.000000865810    0.000000000000
 0.000000000000   -0.000000845000    0.000000000000
 0.000000000000   -0.000000823959    0.000000000000
 0.000000000000   -0.000000802909    0.000000000000
 0.000000000000   -0.000000781849    0.000000000000
 0.000000000000   -0.000000760417    0.000000000000
 0.000000000000   -0.000000739583    0.000000000000
 0.000000000000   -0.000000718750    0.000000000000
 0.000000000000   -0.000000697917    0.000000000000
 0.000000000000   -0.000000677083    0.000000000000
 0.000000000000   -0.000000656250    0.000000000000
 0.000000000000   -0.000000635417    0.000000000000
 0.000000000000   -0.000000614583    0.000000000000
 0.000000000000   -0.000000593750    0.000000000000
 0.000000000000   -0.000000572917    0.000000000000
 0.000000000000   -0.000000552083    0.000000000000
 0.000000000000   -0.000000531250    0.000000000000
 0.000000000000   -0.000000510417    0.000000000000
 0.000000000000   -0.000000489583    0.000000000000
 0.000000000000   -0.000000468750    0.000000000000
 0.000000000000   -0.000000447917    0.000000000000
 0.000000000000   -0.000000427083    0.000000000000
 0.000000000000   -0.000000406250    0.000000000000
 0.000000000000   -0.000000385417    0.000000000000
 0.000000000000   -0.000000364583    0.000000000000
 0.000000000000   -0.000000343750    0.000000000000
 0.000000000000   -0.000000322917    0.000000000000
 0.000000000000   -0.000000302083    0.000000000000
 0.000000000000   -0.000000281250    0.000000000000
 0.000000000000   -0.000000260096    0.000000000000
 0.000000000000   -0.000000239263    0.000000000000
 0.000000000000   -0.000000218026    0.000000000000
 0.000000000000   -0.000000196918    0.000000000000
 0.000000000000   -0.000000175674    0.000000000000
 0.000000000000   -0.000000154802    0.000000000000
 0.000000000000   -0.000000133956    0.000000000000
 0.000000000000   -0.000000112513    0.000000000000
 0.000000000000   -0.000000089492    0.000000000000
 0.000000000000   -0.000000068840    0.000000000000
 0.000000000000   -0.000000055102    0.000000000000
 0.000000000000   -0.000000034990    0.000000000000
 0.000000000000   -0.000000036533    0.000000000000
 0.000000000000   -0.000000036711    0.000000000000
 0.000000000000   -0.000000036697    0.000000000000
 0.000000000000   -0.000000036582    0.000000000000
 0.000000000000   -0.000000036595    0.000000000000
 0.000000000000   -0.000000036755    0.000000000000
 0.000000000000   -0.000000037326    0.000000000000
 0.000000000000   -0.000000036043    0.000000000000
 0.000000000000   -0.000000047851    0.000000000000
 0.000000000000   -0.000000082009    0.000000000000
 0.000000000000   -0.000000123798    0.000000000000
 0.000000000000   -0.000000166006    0.000000000000
 0.000000000000   -0.000000208107    0.000000000000
 0.000000000000   -0.000000250000    0.000000000000
 0.000000000000   -0.000000291667    0.000000000000
 0.000000000000   -0.000000333333    0.000000000000
 0.000000000000   -0.000000375000    0.000000000000
 0.000000000000   -0.000000416667    0.000000000000
 0.000000000000   -0.000000458333    0.000000000000
 0.000000000000   -0.000000500000    0.000000000000
 0.000000000000   -0.000000541667    0.000000000000
 0.000000000000   -0.000000583333    0.000000000000
 0.000000000000   -0.000000625000    0.000000000000
 0.000000000000   -0.000000666667    0.000000000000
 0.000000000000   -0.000000708333    0.000000000000
 0.000000000000   -0.000000750256    0.000000000000
 0.000000000000   -0.000000792300    0.000000000000
 0.000000000000   -0.000000834326    0.000000000000
 0.000000000000   -0.000000876719    0.000000000000
 0.000000000000   -0.000000918615    0.000000000000
 0.000000000000   -0.000000952838    0.000000000000
 0.000000000000   -0.000000965068    0.000000000000
 0.000000000000   -0.000000963739    0.000000000000
 0.000000000000   -0.000000963775    0.000000000000
 0.000000000000   -0.000000963818    0.000000000000
 0.000000000000   -0.000000963708    0.000000000000
 0.000000000000   -0.000000963436    0.000000000000
 0.000000000000   -0.000000963245    0.000000000000
 0.000000000000   -0.000000962674    0.000000000000
 0.000000000000   -0.000000963957    0.000000000000
 0.000000000000   -0.000000952149    0.000000000000
 0.000000000000   -0.000000917991    0.000000000000
 0.000000000000   -0.000000876202    0.000000000000
 0.000000000000   -0.000000833994    0.000000000000
 0.000000000000   -0.000000791894    0.000000000000
 0.000000000000   -0.000000750000    0.000000000000
 0.000000000000   -0.000000708333    0.000000000000
 0.000000000000   -0.000000666667    0.000000000000
 0.000000000000   -0.000000625000    0.000000000000
 0.000000000000   -0.000000583333    0.000000000000
 0.000000000000   -0.000000541667    0.000000000000
 0.000000000000   -0.000000500000    0.000000000000
 0.000000000000   -0.000000458333    0.000000000000
 0.000000000000   -0.000000416667    0.000000000000
 0.000000000000   -0.000000375000    0.000000000000
 0.000000000000   -0.000000333333    0.000000000000
 0.000000000000   -0.000000291667    0.000000000000
 0.000000000000   -0.000000250000    0.000000000000
 0.000000000000   -0.000000208059    0.000000000000
 0.000000000000   -0.000000166079    0.000000000000
 0.000000000000   -0.000000123764    0.000000000000
 0.000000000000   -0.000000081669    0.000000000000
 0.000000000000   -0.000000047280    0.000000000000
 0.000000000000   -0.000000016771    0.000000000000
 0.000000000000   -0.000000016771    0.000000000000
 0.000000000000   -0.000000018219    0.000000000000
 0.000000000000   -0.000000018219    0.000000000000
 0.000000000000   -0.000000018314    0.000000000000
 0.000000000000   -0.000000018314    0.000000000000
 0.000000000000   -0.000000018397    0.000000000000
 0.000000000000   -0.000000018397    0.000000000000
 0.000000000000   -0.000000018300    0.000000000000
 0.000000000000   -0.000000018300    0.000000000000
 0.000000000000   -0.000000018282    0.000000000000
 0.000000000000   -0.000000018282    0.000000000000
 0.000000000000   -0.000000018314    0.000000000000
 0.000000000000   -0.000000018314    0.000000000000
 0.000000000000   -0.000000018441    0.000000000000
 0.000000000000   -0.000000018441    0.000000000000
 0.000000000000   -0.000000018886    0.000000000000
 0.000000000000   -0.000000018886    0.000000000000
 0.000000000000   -0.000000017158    0.000000000000
 0.000000000000   -0.000000017158    0.000000000000
 0.000000000000   -0.000000051527    0.000000000000
 0.000000000000   -0.000000072360    0.000000000000
 0.000000000000   -0.000000092982    0.000000000000
 0.000000000000   -0.000000113816    0.000000000000
 0.000000000000   -0.000000134983    0.000000000000
 0.000000000000   -0.000000155816    0.000000000000
 0.000000000000   -0.000000176856    0.000000000000
 0.000000000000   -0.000000197690    0.000000000000
 0.000000000000   -0.000000218750    0.000000000000
 0.000000000000   -0.000000239583    0.000000000000
 0.000000000000   -0.000000260417    0.000000000000
 0.000000000000   -0.000000281250    0.000000000000
 0.000000000000   -0.000000302083    0.000000000000
 0.000000000000   -0.000000322917    0.000000000000
 0.000000000000   -0.000000343750    0.000000000000
 0.000000000000   -0.000000364583    0.000000000000
 0.000000000000   -0.000000385417    0.000000000000
 0.000000000000   -0.000000406250    0.000000000000
 0.000000000000   -0.000000427083    0.000000000000
 0.000000000000   -0.000000447917    0.000000000000
 0.000000000000   -0.000000468750    0.000000000000
 0.000000000000   -0.000000489583    0.000000000000
 0.000000000000   -0.000000510417    0.000000000000
 0.000000000000   -0.000000531250    0.000000000000
 0.000000000000   -0.000000552083    0.000000000000
 0.000000000000   -0.000000572917    0.000000000000
 0.000000000000   -0.000000593750    0.000000000000
 0.000000000000   -0.000000614583    0.000000000000
 0.000000000000   -0.000000635417    0.000000000000
 0.000000000000   -0.000000656250    0.000000000000
 0.000000000000   -0.000000677083    0.000000000000
 0.000000000000   -0.000000697917    0.000000000000
 0.000000000000   -0.000000718750    0.000000000000
 0.000000000000   -0.000000739583    0.000000000000
 0.000000000000   -0.000000760673    0.000000000000
 0.000000000000   -0.000000781506    0.000000000000
 0.000000000000   -0.000000802461    0.000000000000
 0.000000000000   -0.000000823294    0.000000000000
 0.000000000000   -0.000000844366    0.000000000000
 0.000000000000   -0.000000865199    0.000000000000
 0.000000000000   -0.000000886520    0.000000000000
 0.000000000000   -0.000000907354    0.000000000000
 0.000000000000   -0.000000927928    0.000000000000
 0.000000000000   -0.000000948762    0.000000000000
 0.000000000000   -0.000000983243    0.000000000000
 0.000000000000   -0.000000983243    0.000000000000
 0.000000000000   -0.000000981824    0.000000000000
 0.000000000000   -0.000000981824    0.000000000000
 0.000000000000   -0.000000981915    0.000000000000
 0.000000000000   -0.000000981915    0.000000000000
 0.000000000000   -0.000000981860    0.000000000000
 0.000000000000   -0.000000981860    0.000000000000
 0.000000000000   -0.000000981958    0.000000000000
 0.000000000000   -0.000000981958    0.000000000000
 0.000000000000   -0.000000981750    0.000000000000
 0.000000000000   -0.000000981750    0.000000000000
 0.000000000000   -0.000000981686    0.000000000000
 0.000000000000   -0.000000981686    0.000000000000
 0.000000000000   -0.000000981559    0.000000000000
 0.000000000000   -0.000000981559    0.000000000000
 0.000000000000   -0.000000981115    0.000000000000
 0.000000000000   -0.000000981115    0.000000000000
 0.000000000000   -0.000000982842    0.000000000000
 0.000000000000   -0.000000982842    0.000000000000
 0.000000000000   -0.000000948473    0.000000000000
 0.000000000000   -0.000000927640    0.000000000000
 0.000000000000   -0.000000907018    0.000000000000
 0.000000000000   -0.000000886184    0.000000000000
 0.000000000000   -0.000000865017    0.000000000000
 0.000000000000   -0.000000844184    0.000000000000
 0.000000000000   -0.000000823144    0.000000000000
 0.000000000000   -0.000000802310    0.000000000000
 0.000000000000   -0.000000781250    0.000000000000
 0.000000000000   -0.000000760417    0.000000000000
 0.000000000000   -0.000000739583    0.000000000000
 0.000000000000   -0.000000718750    0.000000000000
 0.000000000000   -0.000000697917    0.000000000000
 0.000000000000   -0.000000677083    0.000000000000
 0.000000000000   -0.000000656250    0.000000000000
 0.000000000000   -0.000000635417    0.000000000000
 0.000000000000   -0.000000614583    0.000000000000
 0.000000000000   -0.000000593750    0.000000000000
 0.000000000000   -0.000000572917    0.000000000000
 0.000000000000   -0.000000552083    0.000000000000
 0.000000000000   -0.000000531250    0.000000000000
 0.000000000000   -0.000000510417    0.000000000000
 0.000000000000   -0.000000489583    0.000000000000
 0.000000000000   -0.000000468750    0.000000000000
 0.000000000000   -0.000000447917    0.000000000000
 0.000000000000   -0.000000427083    0.000000000000
 0.000000000000   -0.000000406250    0.000000000000
 0.000000000000   -0.000000385417    0.000000000000
 0.000000000000   -0.000000364583    0.000000000000
 0.000000000000   -0.000000343750    0.000000000000
 0.000000000000   -0.000000322917    0.000000000000
 0.000000000000   -0.000000302083    0.000000000000
 0.000000000000   -0.000000281250    0.000000000000
 0.000000000000   -0.000000260417    0.000000000000
 0.000000000000   -0.000000239583    0.000000000000
 0.000000000000   -0.000000218750    0.000000000000
 0.000000000000   -0.000000197642    0.000000000000
 0.000000000000   -0.000000176809    0.000000000000
 0.000000000000   -0.000000155937    0.000000000000
 0.000000000000   -0.000000135104    0.000000000000
 0.000000000000   -0.000000113660    0.000000000000
 0.000000000000   -0.000000092827    0.000000000000
 0.000000000000   -0.000000072175    0.000000000000
 0.000000000000   -0.000000051342    0.000000000000
 0.000000000000   -0.000000061017    0.000000000000
 0.000000000000   -0.000000102321    0.000000000000
 0.000000000000   -0.000000145207    0.000000000000
 0.000000000000   -0.000000186951    0.000000000000
 0.000000000000   -0.000000229167    0.000000000000
 0.000000000000   -0.000000270833    0.000000000000
 0.000000000000   -0.000000312500    0.000000000000
 0.000000000000   -0.000000354167    0.000000000000
 0.000000000000   -0.000000395833    0.000000000000
 0.000000000000   -0.000000437500    0.000000000000
 0.000000000000   -0.000000479167    0.000000000000
 0.000000000000   -0.000000520833    0.000000000000
 0.000000000000   -0.000000562500    0.000000000000
 0.000000000000   -0.000000604167    0.000000000000
 0.000000000000   -0.000000645833    0.000000000000
 0.000000000000   -0.000000687500    0.000000000000
 0.000000000000   -0.000000729167    0.000000000000
 0.000000000000   -0.000000770833    0.000000000000
 0.000000000000   -0.000000812954    0.000000000000
 0.000000000000   -0.000000855034    0.000000000000
 0.000000000000   -0.000000897369    0.000000000000
 0.000000000000   -0.000000938613    0.000000000000
 0.000000000000   -0.000000965685    0.000000000000
 0.000000000000   -0.000000962229    0.000000000000
 0.000000000000   -0.000000963119    0.000000000000
 0.000000000000   -0.000000963372    0.000000000000
 0.000000000000   -0.000000963500    0.000000000000
 0.000000000000   -0.000000963916    0.000000000000
 0.000000000000   -0.000000963721    0.000000000000
 0.000000000000   -0.000000963830    0.000000000000
 0.000000000000   -0.000000963648    0.000000000000
 0.000000000000   -0.000000966487    0.000000000000
 0.000000000000   -0.000000939190    0.000000000000
 0.000000000000   -0.000000898041    0.000000000000
 0.000000000000   -0.000000855398    0.000000000000
 0.000000000000   -0.000000813255    0.000000000000
 0.000000000000   -0.000000771346    0.000000000000
 0.000000000000   -0.000000729167    0.000000000000
 0.000000000000   -0.000000687500    0.000000000000
 0.000000000000   -0.000000645833    0.000000000000
 0.000000000000   -0.000000604167    0.000000000000
 0.000000000000   -0.000000562500    0.000000000000
 0.000000000000   -0.000000520833    0.000000000000
 0.000000000000   -0.000000479167    0.000000000000
 0.000000000000   -0.000000437500    0.000000000000
 0.000000000000   -0.000000395833    0.000000000000
 0.000000000000   -0.000000354167    0.000000000000
 0.000000000000   -0.000000312500    0.000000000000
 0.000000000000   -0.000000270833    0.000000000000
 0.000000000000   -0.000000229167    0.000000000000
 0.000000000000   -0.000000187046    0.000000000000
 0.000000000000   -0.000000144966    0.000000000000
 0.000000000000   -0.000000102631    0.000000000000
 0.000000000000   -0.000000061387    0.000000000000
 0.000000000000   -0.000000034315    0.000000000000
 0.000000000000   -0.000000037771    0.000000000000
 0.000000000000   -0.000000036881    0.000000000000
 0.000000000000   -0.000000036628    0.000000000000
 0.000000000000   -0.000000036563    0.000000000000
 0.000000000000   -0.000000036601    0.000000000000
 0.000000000000   -0.000000036794    0.000000000000
 0.000000000000   -0.000000036628    0.000000000000
 0.000000000000   -0.000000036438    0.000000000000
 0.000000000000   -0.000000033542    0.000000000000
 0.000000000000   -0.000000076663    0.000000000000
 0.000000000000   -0.000000122704    0.000000000000
 0.000000000000   -0.000000164397    0.000000000000
 0.000000000000   -0.000000206886    0.000000000000
 0.000000000000   -0.000000249359    0.000000000000
 0.000000000000   -0.000000291667    0.000000000000
 0.000000000000   -0.000000333333    0.000000000000
 0.000000000000   -0.000000375000    0.000000000000
 0.000000000000   -0.000000416667    0.000000000000
 0.000000000000   -0.000000458333    0.000000000000
 0.000000000000   -0.000000500000    0.000000000000
 0.000000000000   -0.000000541667    0.000000000000
 0.000000000000   -0.000000583333    0.000000000000
 0.000000000000   -0.000000625000    0.000000000000
 0.000000000000   -0.000000666667    0.000000000000
 0.000000000000   -0.000000708333    0.000000000000
 0.000000000000   -0.000000750000    0.000000000000
 0.000000000000   -0.000000792864    0.000000000000
 0.000000000000   -0.000000834965    0.000000000000
 0.000000000000   -0.000000876586    0.000000000000
 0.000000000000   -0.000000922727    0.000000000000
 0.000000000000   -0.000000926238    0.000000000000
 0.000000000000   -0.000000925922    0.000000000000
 0.000000000000   -0.000000926062    0.000000000000
 0.000000000000   -0.000000926583    0.000000000000
 0.000000000000   -0.000000926693    0.000000000000
 0.000000000000   -0.000000927215    0.000000000000
 0.000000000000   -0.000000927575    0.000000000000
 0.000000000000   -0.000000923999    0.000000000000
 0.000000000000   -0.000000878022    0.000000000000
 0.000000000000   -0.000000836112    0.000000000000
 0.000000000000   -0.000000793734    0.000000000000
 0.000000000000   -0.000000751003    0.000000000000
 0.000000000000   -0.000000708662    0.000000000000
 0.000000000000   -0.000000666667    0.000000000000
 0.000000000000   -0.000000625000    0.000000000000
 0.000000000000   -0.000000583333    0.000000000000
 0.000000000000   -0.000000541667    0.000000000000
 0.000000000000   -0.000000500000    0.000000000000
 0.000000000000   -0.000000458333    0.000000000000
 0.000000000000   -0.000000416667    0.000000000000
 0.000000000000   -0.000000375000    0.000000000000
 0.000000000000   -0.000000333333    0.000000000000
 0.000000000000   -0.000000291667    0.000000000000
 0.000000000000   -0.000000250000    0.000000000000
 0.000000000000   -0.000000207136    0.000000000000
 0.000000000000   -0.000000165035    0.000000000000
 0.000000000000   -0.000000123415    0.000000000000
 0.000000000000   -0.000000077273    0.000000000000
 0.000000000000   -0.000000073762    0.000000000000
 0.000000000000   -0.000000074078    0.000000000000
 0.000000000000   -0.000000074125    0.000000000000
 0.000000000000   -0.000000073976    0.000000000000
 0.000000000000   -0.000000074162    0.000000000000
 0.000000000000   -0.000000073999    0.000000000000
 0.000000000000   -0.000000073340    0.000000000000
 0.000000000000   -0.000000105374    0.000000000000
 0.000000000000   -0.000000140746    0.000000000000
 0.000000000000   -0.000000183380    0.000000000000
 0.000000000000   -0.000000226957    0.000000000000
 0.000000000000   -0.000000269888    0.000000000000
 0.000000000000   -0.000000312252    0.000000000000
 0.000000000000   -0.000000354167    0.000000000000
 0.000000000000   -0.000000395833    0.000000000000
 0.000000000000   -0.000000437500    0.000000000000
 0.000000000000   -0.000000479167    0.000000000000
 0.000000000000   -0.000000520833    0.000000000000
 0.000000000000   -0.000000562500    0.000000000000
 0.000000000000   -0.000000604167    0.000000000000
 0.000000000000   -0.000000645833    0.000000000000
 0.000000000000   -0.000000687500    0.000000000000
 0.000000000000   -0.000000729788    0.000000000000
 0.000000000000   -0.000000772773    0.000000000000
 0.000000000000   -0.000000816259    0.000000000000
 0.000000000000   -0.000000858118    0.000000000000
 0.000000000000   -0.000000894221    0.000000000000
 0.000000000000   -0.000000888457    0.000000000000
 0.000000000000   -0.000000887244    0.000000000000
 0.000000000000   -0.000000888292    0.000000000000
 0.000000000000   -0.000000889624    0.000000000000
 0.000000000000   -0.000000889099    0.000000000000
 0.000000000000   -0.000000890992    0.000000000000
 0.000000000000   -0.000000895773    0.000000000000
 0.000000000000   -0.000000859998    0.000000000000
 0.000000000000   -0.000000817745    0.000000000000
 0.000000000000   -0.000000773633    0.000000000000
 0.000000000000   -0.000000730135    0.000000000000
 0.000000000000   -0.000000687788    0.000000000000
 0.000000000000   -0.000000645833    0.000000000000
 0.000000000000   -0.000000604167    0.000000000000
 0.000000000000   -0.000000562500    0.000000000000
 0.000000000000   -0.000000520833    0.000000000000
 0.000000000000   -0.000000479167    0.000000000000
 0.000000000000   -0.000000437500    0.000000000000
 0.000000000000   -0.000000395833    0.000000000000
 0.000000000000   -0.000000354167    0.000000000000
 0.000000000000   -0.000000312500    0.000000000000
 0.000000000000   -0.000000270212    0.000000000000
 0.000000000000   -0.000000227227    0.000000000000
 0.000000000000   -0.000000183741    0.000000000000
 0.000000000000   -0.000000141882    0.000000000000
 0.000000000000   -0.000000105779    0.000000000000
 0.000000000000   -0.000000111543    0.000000000000
 0.000000000000   -0.000000112814    0.000000000000
 0.000000000000   -0.000000112129    0.000000000000
 0.000000000000   -0.000000111446    0.000000000000
 0.000000000000   -0.000000112154    0.000000000000
 0.000000000000   -0.000000111912    0.000000000000
 0.000000000000   -0.000000155568    0.000000000000
 0.000000000000   -0.000000204216    0.000000000000
 0.000000000000   -0.000000247723    0.000000000000
 0.000000000000   -0.000000291124    0.000000000000
 0.000000000000   -0.000000333333    0.000000000000
 0.000000000000   -0.000000375000    0.000000000000
 0.000000000000   -0.000000416667    0.000000000000
 0.000000000000   -0.000000458333    0.000000000000
 0.000000000000   -0.000000500000    0.000000000000
 0.000000000000   -0.000000541667    0.000000000000
 0.000000000000   -0.000000583333    0.000000000000
 0.000000000000   -0.000000625000    0.000000000000
 0.000000000000   -0.000000666667    0.000000000000
 0.000000000000   -0.000000709212    0.000000000000
 0.000000000000   -0.000000752388    0.000000000000
 0.000000000000   -0.000000795773    0.000000000000
 0.000000000000   -0.000000844222    0.000000000000
 0.000000000000   -0.000000849418    0.000000000000
 0.000000000000   -0.000000850107    0.000000000000
 0.000000000000   -0.000000852599    0.000000000000
 0.000000000000   -0.000000846799    0.000000000000
 0.000000000000   -0.000000796911    0.000000000000
 0.000000000000   -0.000000752271    0.000000000000
 0.000000000000   -0.000000708763    0.000000000000
 0.000000000000   -0.000000666667    0.000000000000
 0.000000000000   -0.000000625000    0.000000000000
 0.000000000000   -0.000000583333    0.000000000000
 0.000000000000   -0.000000541667    0.000000000000
 0.000000000000   -0.000000500000    0.000000000000
 0.000000000000   -0.000000458333    0.000000000000
 0.000000000000   -0.000000416667    0.000000000000
 0.000000000000   -0.000000375000    0.000000000000
 0.000000000000   -0.000000333333    0.000000000000
 0.000000000000   -0.000000291232    0.000000000000
 0.000000000000   -0.000000248045    0.000000000000
 0.000000000000   -0.000000204227    0.000000000000
 0.000000000000   -0.000000155778    0.000000000000
 0.000000000000   -0.000000150310    0.000000000000
 0.000000000000   -0.000000150102    0.000000000000
 0.000000000000   -0.000000148212    0.000000000000
 0.000000000000   -0.000000184407    0.000000000000
 0.000000000000   -0.000000223126    0.000000000000
 0.000000000000   -0.000000270271    0.000000000000
 0.000000000000   -0.000000312360    0.000000000000
 0.000000000000   -0.000000354167    0.000000000000
 0.000000000000   -0.000000395833    0.000000000000
 0.000000000000   -0.000000437500    0.000000000000
 0.000000000000   -0.000000479167    0.000000000000
 0.000000000000   -0.000000520833    0.000000000000
 0.000000000000   -0.000000562500    0.000000000000
 0.000000000000   -0.000000604167    0.000000000000
 0.000000000000   -0.000000645833    0.000000000000
 0.000000000000   -0.000000688085    0.000000000000
 0.000000000000   -0.000000731278    0.000000000000
 0.000000000000   -0.000000775505    0.000000000000
 0.000000000000   -0.000000815145    0.000000000000
 0.000000000000   -0.000000804334    0.000000000000
 0.000000000000   -0.000000812086    0.000000000000
 0.000000000000   -0.000000817296    0.000000000000
 0.000000000000   -0.000000774934    0.000000000000
 0.000000000000   -0.000000729167    0.000000000000
 0.000000000000   -0.000000687353    0.000000000000
 0.000000000000   -0.000000645772    0.000000000000
 0.000000000000   -0.000000604150    0.000000000000
 0.000000000000   -0.000000562496    0.000000000000
 0.000000000000   -0.000000520833    0.000000000000
 0.000000000000   -0.000000479167    0.000000000000
 0.000000000000   -0.000000437500    0.000000000000
 0.000000000000   -0.000000395833    0.000000000000
 0.000000000000   -0.000000354167    0.000000000000
 0.000000000000   -0.000000311910    0.000000000000
 0.000000000000   -0.000000268998    0.000000000000
 0.000000000000   -0.000000224515    0.000000000000
 0.000000000000   -0.000000184855    0.000000000000
 0.000000000000   -0.000000195859    0.000000000000
 0.000000000000   -0.000000188271    0.000000000000
 0.000000000000   -0.000000256849    0.000000000000
 0.000000000000   -0.000000292284    0.000000000000
 0.000000000000   -0.000000333333    0.000000000000
 0.000000000000   -0.000000375000    0.000000000000
 0.000000000000   -0.000000416667    0.000000000000
 0.000000000000   -0.000000458333    0.000000000000
 0.000000000000   -0.000000500000    0.000000000000
 0.000000000000   -0.000000541667    0.000000000000
 0.000000000000   -0.000000583333    0.000000000000
 0.000000000000   -0.000000625042    0.000000000000
 0.000000000000   -0.000000666961    0.000000000000
 0.000000000000   -0.000000709570    0.000000000000
 0.000000000000   -0.000000753805    0.000000000000
 0.000000000000   -0.000000772531    0.000000000000
 0.000000000000   -0.000000742927    0.000000000000
 0.000000000000   -0.000000707209    0.000000000000
 0.000000000000   -0.000000666479    0.000000000000
 0.000000000000   -0.000000624969    0.000000000000
 0.000000000000   -0.000000583328    0.000000000000
 0.000000000000   -0.000000541666    0.000000000000
 0.000000000000   -0.000000500000    0.000000000000
 0.000000000000   -0.000000458333    0.000000000000
 0.000000000000   -0.000000416667    0.000000000000
 0.000000000000   -0.000000375000    0.000000000000
 0.000000000000   -0.000000333333    0.000000000000
 0.000000000000   -0.000000290399    0.000000000000
 0.000000000000   -0.000000246260    0.000000000000
 0.000000000000   -0.000000227917    0.000000000000
 0.000000000000   -0.000000270647    0.000000000000
 0.000000000000   -0.000000312360    0.000000000000
 0.000000000000   -0.000000354143    0.000000000000
 0.000000000000   -0.000000395830    0.000000000000
 0.000000000000   -0.000000437499    0.000000000000
 0.000000000000   -0.000000479167    0.000000000000
 0.000000000000   -0.000000520833    0.000000000000
 0.000000000000   -0.000000562499    0.000000000000
 0.000000000000   -0.000000604160    0.000000000000
 0.000000000000   -0.000000645796    0.000000000000
 0.000000000000   -0.000000687481    0.000000000000
 0.000000000000   -0.000000729167    0.000000000000
 0.000000000000   -0.000000028050    0.000000000000
 0.000000000000   -0.000000028050    0.000000000000
 0.000000000000   -0.000000971950    0.000000000000
 0.000000000000   -0.000000971950    0.000000000000

TENSORS   nStress   float
-50150.251072792547   -0.000037732902    0.000000000000
-0.000037732902   -117731.937831886287    0.000000000000
 0.000000000000    0.000000000000   -93357.100974555593

-50150.248486699500    0.007388823176    0.000000000000
 0.007388823176   -117731.933247722191    0.000000000000
 0.000000000000    0.000000000000   -93357.097426028253

-50150.253909413295   -0.000021349093    0.000000000000
-0.000021349093   -117731.942860137875    0.000000000000
 0.000000000000    0.000000000000   -93357.105202605031

-50150.250792221101   -0.000094435812    0.000000000000
-0.000094435812   -117731.937334539762    0.000000000000
 0.000000000000    0.000000000000   -93357.100583441381

-50150.252258307279    0.000032580807    0.000000000000
 0.000032580807   -117731.939933354020    0.000000000000
 0.000000000000    0.000000000000   -93357.102792632038

-50150.250664834435   -0.000064235968    0.000000000000
-0.000064235968   -117731.937108731945    0.000000000000
 0.000000000000    0.000000000000   -93357.100478623572

-50150.251885732760    0.000026788581    0.000000000000
 0.000026788581   -117731.939272921431    0.000000000000
 0.000000000000    0.000000000000   -93357.102363243437

-50150.250385519292   -0.000112645624    0.000000000000
-0.000112645624   -117731.936613612823    0.000000000000
 0.000000000000    0.000000000000   -93357.100187173346

-50150.251581809527   -0.000118465099    0.000000000000
-0.000118465099   -117731.938734181487    0.000000000000
 0.000000000000    0.000000000000   -93357.102026468303

-50150.250080979487   -0.000121173189    0.000000000000
-0.000121173189   -117731.936073779987    0.000000000000
 0.000000000000    0.000000000000   -93357.099867758152

-50150.250631684474   -0.000007399013    0.000000000000
-0.000007399013   -117731.937049971108    0.000000000000
 0.000000000000    0.000000000000   -93357.100744446623

-50150.250131770910   -0.000001647664    0.000000000000
-0.000001647664   -117731.936163814506    0.000000000000
 0.000000000000    0.000000000000   -93357.100070499364

-50150.250559189211   -0.000407029987    0.000000000000
-0.000407029987   -117731.936921465065    0.000000000000
 0.000000000000    0.000000000000   -93357.100748124605

-50150.249572020191   -0.000192525831    0.000000000000
-0.000192525831   -117731.935171589474    0.000000000000
 0.000000000000    0.000000000000   -93357.099340470973

-50150.248580011052    0.000740697871    0.000000000000
 0.000740697871   -117731.933413133840    0.000000000000
 0.000000000000    0.000000000000   -93357.097850717517

-50150.249907935540    0.000727405113    0.000000000000
 0.000727405113   -117731.935767040137    0.000000000000
 0.000000000000    0.000000000000   -93357.099908366625

-50150.254975000214    0.000446218216    0.000000000000
 0.000446218216   -117731.944749021641    0.000000000000
 0.000000000000    0.000000000000   -93357.107386543474

-50150.248698680960   -0.000502382127    0.000000000000
-0.000502382127   -117731.933623490870    0.000000000000
 0.000000000000    0.000000000000   -93357.098112872613

-50150.253735187565    0.002072357096    0.000000000000
 0.002072357096   -117731.942551303800    0.000000000000
 0.000000000000    0.000000000000   -93357.105413240002

-50150.249813507842    0.003282617991    0.000000000000
 0.003282617991   -117731.935599654753    0.000000000000
 0.000000000000    0.000000000000   -93357.099726151981

-50150.272711349826   -0.000143660156    0.000000000000
-0.000143660156   -117731.976188835222    0.000000000000
 0.000000000000    0.000000000000   -93357.133777996714

-50150.251058535883   -0.005469702679    0.000000000000
-0.005469702679   -117731.937806615431    0.000000000000
 0.000000000000    0.000000000000   -93357.101482832528

-50150.241576314089   -0.005817709870    0.000000000000
-0.005817709870   -117731.920998236208    0.000000000000
 0.000000000000    0.000000000000   -93357.087258434738

-50150.242489032127    0.000266629714    0.000000000000
 0.000266629714   -117731.922616139069    0.000000000000
 0.000000000000    0.000000000000   -93357.088539360557

-50150.222658471328    0.003073554204    0.000000000000
 0.003073554204   -117731.887464084808    0.000000000000
 0.000000000000    0.000000000000   -93357.059097351303

-50150.262492366033   -0.055665619735    0.000000000000
-0.055665619735   -117731.958074311638    0.000000000000
 0.000000000000    0.000000000000   -93357.117753855739

-50150.262740391874    0.000599086359    0.000000000000
 0.000599086359   -117731.958514110564    0.000000000000
 0.000000000000    0.000000000000   -93357.118500000128

-50150.241147448542    0.004558058936    0.000000000000
 0.004558058936   -117731.920238006089    0.000000000000
 0.000000000000    0.000000000000   -93357.086476916491

-50150.228958049949    0.036503840526    0.000000000000
 0.036503840526   -117731.898630789874    0.000000000000
 0.000000000000    0.000000000000   -93357.068107238840

-50150.243101804816   -0.009325790887    0.000000000000
-0.009325790887   -117731.923702278349    0.000000000000
 0.000000000000    0.000000000000   -93357.089423823360

-50150.272787516915   -0.086386079648    0.000000000000
-0.086386079648   -117731.976323543495    0.000000000000
 0.000000000000    0.000000000000   -93357.133695512675

-50150.260473834351    0.005415942278    0.000000000000
 0.005415942278   -117731.954496167644    0.000000000000
 0.000000000000    0.000000000000   -93357.115415104563

-50150.251044871795    0.080462229241    0.000000000000
 0.080462229241   -117731.937782129608    0.000000000000
 0.000000000000    0.000000000000   -93357.101329324258

-50150.244108093211   -0.003673682774    0.000000000000
-0.003673682774   -117731.925486002743    0.000000000000
 0.000000000000    0.000000000000   -93357.091023632049

-50150.257788116687    0.001238285582    0.000000000000
 0.001238285582   -117731.949735608796    0.000000000000
 0.000000000000    0.000000000000   -93357.111528567257

-50150.243787753629    0.004713062129    0.000000000000
 0.004713062129   -117731.924918162505    0.000000000000
 0.000000000000    0.000000000000   -93357.090598672788

-50150.244089366679   -0.077850120193    0.000000000000
-0.077850120193   -117731.925452677839    0.000000000000
 0.000000000000    0.000000000000   -93357.091178981718

-50150.257383873723   -0.000018271931    0.000000000000
-0.000018271931   -117731.949018831816    0.000000000000
 0.000000000000    0.000000000000   -93357.110952891540

-50150.244461691858    0.077136520613    0.000000000000
 0.077136520613   -117731.926112673755    0.000000000000
 0.000000000000    0.000000000000   -93357.091774007466

-50150.243807638959   -0.004902462285    0.000000000000
-0.004902462285   -117731.924953413778    0.000000000000
 0.000000000000    0.000000000000   -93357.090706995397

-50150.258853110689   -0.000383399891    0.000000000000
-0.000383399891   -117731.951623439410    0.000000000000
 0.000000000000    0.000000000000   -93357.113241332845

-50150.243913480954    0.004480871107    0.000000000000
 0.004480871107   -117731.925141029074    0.000000000000
 0.000000000000    0.000000000000   -93357.090879824813

-50150.246799944754   -0.077857997009    0.000000000000
-0.077857997009   -117731.930257503409    0.000000000000
 0.000000000000    0.000000000000   -93357.095185353101

-50150.257768913369   -0.000333822276    0.000000000000
-0.000333822276   -117731.949701358753    0.000000000000
 0.000000000000    0.000000000000   -93357.111571310103

-50150.248029904767    0.077491901868    0.000000000000
 0.077491901868   -117731.932437757743    0.000000000000
 0.000000000000    0.000000000000   -93357.096991330211

-50150.244687377883   -0.005133589127    0.000000000000
-0.005133589127   -117731.926512857302    0.000000000000
 0.000000000000    0.000000000000   -93357.092010025852

-50150.262410827578    0.000112134917    0.000000000000
 0.000112134917   -117731.957929920434    0.000000000000
 0.000000000000    0.000000000000   -93357.118491852481

-50150.245363033988    0.004323454595    0.000000000000
 0.004323454595   -117731.927710537406    0.000000000000
 0.000000000000    0.000000000000   -93357.092985775016

-50150.249576435832   -0.077180651114    0.000000000000
-0.077180651114   -117731.935179172491    0.000000000000
 0.000000000000    0.000000000000   -93357.099378971136

-50150.259668253973   -0.000258839711    0.000000000000
-0.000258839711   -117731.953068167903    0.000000000000
 0.000000000000    0.000000000000   -93357.114313682890

-50150.249099737084    0.078205969841    0.000000000000
 0.078205969841   -117731.934334160134    0.000000000000
 0.000000000000    0.000000000000   -93357.098684238677

-50150.246654698545   -0.004754830458    0.000000000000
-0.004754830458   -117731.930000167937    0.000000000000
 0.000000000000    0.000000000000   -93357.094833678377

-50150.261067011066    0.000644683291    0.000000000000
 0.000644683291   -117731.955547843943    0.000000000000
 0.000000000000    0.000000000000   -93357.116478352211

-50150.246905791166    0.004863443270    0.000000000000
 0.004863443270   -117731.930445258375    0.000000000000
 0.000000000000    0.000000000000   -93357.095172509202

-50150.246221029614   -0.077034425172    0.000000000000
-0.077034425172   -117731.929231311180    0.000000000000
 0.000000000000    0.000000000000   -93357.094161652101

-50150.260461668244    0.000152071214    0.000000000000
 0.000152071214   -117731.954474593731    0.000000000000
 0.000000000000    0.000000000000   -93357.115408201760

-50150.245020540264    0.078327274059    0.000000000000
 0.078327274059   -117731.927103290713    0.000000000000
 0.000000000000    0.000000000000   -93357.092286406856

-50150.246868545975   -0.004594282488    0.000000000000
-0.004594282488   -117731.930379235229    0.000000000000
 0.000000000000    0.000000000000   -93357.095131859693

-50150.256952115713    0.000715390081    0.000000000000
 0.000715390081   -117731.948253696086    0.000000000000
 0.000000000000    0.000000000000   -93357.110196046313

-50150.246880968101    0.004998741465    0.000000000000
 0.004998741465   -117731.930401256148    0.000000000000
 0.000000000000    0.000000000000   -93357.095213635286

-50150.241870144971   -0.077704472903    0.000000000000
-0.077704472903   -117731.921518841162    0.000000000000
 0.000000000000    0.000000000000   -93357.087846362541

-50150.260451032453   -0.000279305584    0.000000000000
-0.000279305584   -117731.954455744897    0.000000000000
 0.000000000000    0.000000000000   -93357.115521216765

-50150.244919864512    0.075569257761    0.000000000000
 0.075569257761   -117731.926924849482    0.000000000000
 0.000000000000    0.000000000000   -93357.092404835115

-50150.246604064567   -0.005193621575    0.000000000000
-0.005193621575   -117731.929910415551    0.000000000000
 0.000000000000    0.000000000000   -93357.094767539398

-50150.260454123243    0.000069285237    0.000000000000
 0.000069285237   -117731.954461425368    0.000000000000
 0.000000000000    0.000000000000   -93357.115311625108

-50150.247500208694    0.003960493516    0.000000000000
 0.003960493516   -117731.931498939812    0.000000000000
 0.000000000000    0.000000000000   -93357.095940663901

-50150.248173366846   -0.075819612307    0.000000000000
-0.075819612307   -117731.932692068600    0.000000000000
 0.000000000000    0.000000000000   -93357.096455988052

-50150.261149387312    0.000710164007    0.000000000000
 0.000710164007   -117731.955693665557    0.000000000000
 0.000000000000    0.000000000000   -93357.116101056527

-50150.245430825591    0.080522552844    0.000000000000
 0.080522552844   -117731.927830553293    0.000000000000
 0.000000000000    0.000000000000   -93357.092200576590

-50150.248450634412   -0.006477260601    0.000000000000
-0.006477260601   -117731.933183663947    0.000000000000
 0.000000000000    0.000000000000   -93357.096817703903

-50150.254484285237    0.008731145823    0.000000000000
 0.008731145823   -117731.943879163853    0.000000000000
 0.000000000000    0.000000000000   -93357.105935818428

-50150.243038499313    0.015237654125    0.000000000000
 0.015237654125   -117731.923590020451    0.000000000000
 0.000000000000    0.000000000000   -93357.088730529256

-50150.154728739937   -0.054308054618    0.000000000000
-0.054308054618   -117731.767050339768    0.000000000000
 0.000000000000    0.000000000000   -93356.957408440532

-50150.252619588035   -0.000177881075    0.000000000000
-0.000177881075   -117731.940573765751    0.000000000000
 0.000000000000    0.000000000000   -93357.103067044256

-50150.241651504148   -0.029846481708    0.000000000000
-0.029846481708   -117731.921131477255    0.000000000000
 0.000000000000    0.000000000000   -93357.085819672589

-50150.238455848630    0.007618091670    0.000000000000
 0.007618091670   -117731.915466818959    0.000000000000
 0.000000000000    0.000000000000   -93357.081931179724

-50150.290394418393    0.013157307256    0.000000000000
 0.013157307256   -117732.007534189717    0.000000000000
 0.000000000000    0.000000000000   -93357.159031361487

-50150.255313782545   -0.000741994619    0.000000000000
-0.000741994619   -117731.945349552305    0.000000000000
 0.000000000000    0.000000000000   -93357.107922703100

-50150.270565437168   -0.006903926152    0.000000000000
-0.006903926152   -117731.972384947512    0.000000000000
 0.000000000000    0.000000000000   -93357.131152696893

-50150.250678704724   -0.002360684319    0.000000000000
-0.002360684319   -117731.937133320214    0.000000000000
 0.000000000000    0.000000000000   -93357.101234568108

-50150.251294989554   -0.000231361868    0.000000000000
-0.000231361868   -117731.938225760110    0.000000000000
 0.000000000000    0.000000000000   -93357.101931296667

-50150.249359170411    0.000413863570    0.000000000000
 0.000413863570   -117731.934794287663    0.000000000000
 0.000000000000    0.000000000000   -93357.099102491353

-50150.262494460520    0.005835367522    0.000000000000
 0.005835367522   -117731.958078167008    0.000000000000
 0.000000000000    0.000000000000   -93357.118292101601

-50150.250811443839    0.003338649262    0.000000000000
 0.003338649262   -117731.937368614090    0.000000000000
 0.000000000000    0.000000000000   -93357.100766317031

-50150.280244018089   -0.001073150531    0.000000000000
-0.001073150531   -117731.989541396455    0.000000000000
 0.000000000000    0.000000000000   -93357.145098947643

-50150.247122493172   -0.001997122170    0.000000000000
-0.001997122170   -117731.930829503006    0.000000000000
 0.000000000000    0.000000000000   -93357.095328716023

-50150.254702824044   -0.011525507878    0.000000000000
-0.011525507878   -117731.944266553459    0.000000000000
 0.000000000000    0.000000000000   -93357.107470123185

-50150.247209305322   -0.003776590869    0.000000000000
-0.003776590869   -117731.930983391474    0.000000000000
 0.000000000000    0.000000000000   -93357.095894979066

-50150.228408183859    0.007026382105    0.000000000000
 0.007026382105   -117731.897656141358    0.000000000000
 0.000000000000    0.000000000000   -93357.067857025060

-50150.247973136175    0.005759593874    0.000000000000
 0.005759593874   -117731.932337370134    0.000000000000
 0.000000000000    0.000000000000   -93357.096885288891

-50150.262025629214    0.000842888601    0.000000000000
 0.000842888601   -117731.957247108934    0.000000000000
 0.000000000000    0.000000000000   -93357.117691940352

-50150.248247297008   -0.002972578372    0.000000000000
-0.002972578372   -117731.932823357158    0.000000000000
 0.000000000000    0.000000000000   -93357.097412490126

-50150.246907938345   -0.001615063622    0.000000000000
-0.001615063622   -117731.930449183856    0.000000000000
 0.000000000000    0.000000000000   -93357.095395248602

-50150.245504874540    0.000475993978    0.000000000000
 0.000475993978   -117731.927962083617    0.000000000000
 0.000000000000    0.000000000000   -93357.093109504844

-50150.250626683955    0.000399505480    0.000000000000
 0.000399505480   -117731.937041106401    0.000000000000
 0.000000000000    0.000000000000   -93357.100590056740

-50150.247354479732   -0.003235113808    0.000000000000
-0.003235113808   -117731.931240731195    0.000000000000
 0.000000000000    0.000000000000   -93357.096079192808

-50150.230700897722   -0.005971397215    0.000000000000
-0.005971397215   -117731.901720256326    0.000000000000
 0.000000000000    0.000000000000   -93357.071976728475

-50150.284137167975    0.004695654497    0.000000000000
 0.004695654497   -117731.996442458141    0.000000000000
 0.000000000000    0.000000000000   -93357.147884453589

-50150.252738417534    0.002205674345    0.000000000000
 0.002205674345   -117731.940784404404    0.000000000000
 0.000000000000    0.000000000000   -93357.103312180261

-50150.260347943957    0.005926703022    0.000000000000
 0.005926703022   -117731.954273207302    0.000000000000
 0.000000000000    0.000000000000   -93357.114925012342

-50150.250467542879    0.002475912699    0.000000000000
 0.002475912699   -117731.936759009826    0.000000000000
 0.000000000000    0.000000000000   -93357.100482390539

-50150.247883419717    0.000465604213    0.000000000000
 0.000465604213   -117731.932178346877    0.000000000000
 0.000000000000    0.000000000000   -93357.097893395214

-50150.249345943470    0.000188215641    0.000000000000
 0.000188215641   -117731.934770841326    0.000000000000
 0.000000000000    0.000000000000   -93357.099040186426

-50150.248836953921   -0.001813002711    0.000000000000
-0.001813002711   -117731.933868600579    0.000000000000
 0.000000000000    0.000000000000   -93357.099254482557

-50150.247069467841    0.000958989584    0.000000000000
 0.000958989584   -117731.930735513452    0.000000000000
 0.000000000000    0.000000000000   -93357.095470487533

-50150.249273626803   -0.001346867631    0.000000000000
-0.001346867631   -117731.934642653330    0.000000000000
 0.000000000000    0.000000000000   -93357.099354265025

-50150.245715014426   -0.000134439706    0.000000000000
-0.000134439706   -117731.928334581331    0.000000000000
 0.000000000000    0.000000000000   -93357.093314819605

-50150.249573897796    0.000775973599    0.000000000000
 0.000775973599   -117731.935174916434    0.000000000000
 0.000000000000    0.000000000000   -93357.099062335925

-50150.246250477125    0.000436189640    0.000000000000
 0.000436189640   -117731.929283753736    0.000000000000
 0.000000000000    0.000000000000   -93357.094191893513

-50150.245542742501    0.002283439626    0.000000000000
 0.002283439626   -117731.928029208473    0.000000000000
 0.000000000000    0.000000000000   -93357.093062465312

-50150.245831873508    0.000936670319    0.000000000000
 0.000936670319   -117731.928541729969    0.000000000000
 0.000000000000    0.000000000000   -93357.093888439937

-50150.240683168937    0.000811133106    0.000000000000
 0.000811133106   -117731.919415031531    0.000000000000
 0.000000000000    0.000000000000   -93357.086191998591

-50150.245132374810    0.000166345624    0.000000000000
 0.000166345624   -117731.927301785312    0.000000000000
 0.000000000000    0.000000000000   -93357.093046143418

-50150.240103639655   -0.000456602641    0.000000000000
-0.000456602641   -117731.918387747108    0.000000000000
 0.000000000000    0.000000000000   -93357.085532753292

-50150.245531434019   -0.000689295094    0.000000000000
-0.000689295094   -117731.928009165960    0.000000000000
 0.000000000000    0.000000000000   -93357.093676333359

-50150.242406838603   -0.000439237108    0.000000000000
-0.000439237108   -117731.922470444610    0.000000000000
 0.000000000000    0.000000000000   -93357.089013538978

-50150.247074367864   -0.000982430882    0.000000000000
-0.000982430882   -117731.930744201643    0.000000000000
 0.000000000000    0.000000000000   -93357.095939885665

-50150.244702863987    0.000025959732    0.000000000000
 0.000025959732   -117731.926540425338    0.000000000000
 0.000000000000    0.000000000000   -93357.092320881420

-50150.248906773195   -0.000834911154    0.000000000000
-0.000834911154   -117731.933992360238    0.000000000000
 0.000000000000    0.000000000000   -93357.098597536577

-50150.246135922163    0.000094145467    0.000000000000
 0.000094145467   -117731.929080692586    0.000000000000
 0.000000000000    0.000000000000   -93357.094282925027

-50150.250352946277   -0.000598947953    0.000000000000
-0.000598947953   -117731.936555875713    0.000000000000
 0.000000000000    0.000000000000   -93357.100679389478

-50150.247228844448   -0.000037476324    0.000000000000
-0.000037476324   -117731.931018028525    0.000000000000
 0.000000000000    0.000000000000   -93357.095845455813

-50150.251187666203   -0.000301720938    0.000000000000
-0.000301720938   -117731.938035516956    0.000000000000
 0.000000000000    0.000000000000   -93357.101862007679

-50150.247940525820   -0.000025618731    0.000000000000
-0.000025618731   -117731.932279569606    0.000000000000
 0.000000000000    0.000000000000   -93357.096949871513

-50150.251375837826    0.000017419412    0.000000000000
 0.000017419412   -117731.938369073483    0.000000000000
 0.000000000000    0.000000000000   -93357.102073138522

-50150.248012481912   -0.000006565573    0.000000000000
-0.000006565573   -117731.932407120592    0.000000000000
 0.000000000000    0.000000000000   -93357.097099606457

-50150.251053438049    0.000223997579    0.000000000000
 0.000223997579   -117731.937797580686    0.000000000000
 0.000000000000    0.000000000000   -93357.101508598702

-50150.247648871249   -0.000035772283    0.000000000000
-0.000035772283   -117731.931762576874    0.000000000000
 0.000000000000    0.000000000000   -93357.096534818338

-50150.250517946093    0.000241075242    0.000000000000
 0.000241075242   -117731.936848356389    0.000000000000
 0.000000000000    0.000000000000   -93357.100625042396

-50150.247286602505   -0.000086083505    0.000000000000
-0.000086083505   -117731.931120411566    0.000000000000
 0.000000000000    0.000000000000   -93357.095915517304

-50150.250089418725    0.000138236681    0.000000000000
 0.000138236681   -117731.936088739720    0.000000000000
 0.000000000000    0.000000000000   -93357.099909154742

-50150.247166832043   -0.000102267505    0.000000000000
-0.000102267505   -117731.930908103488    0.000000000000
 0.000000000000    0.000000000000   -93357.095627245813

-50150.249874032590    0.000039982859    0.000000000000
 0.000039982859   -117731.935706941542    0.000000000000
 0.000000000000    0.000000000000   -93357.099515852737

-50150.247204828331   -0.000054130359    0.000000000000
-0.000054130359   -117731.930975455936    0.000000000000
 0.000000000000    0.000000000000   -93357.095559434281

-50150.249869632469   -0.000040857809    0.000000000000
-0.000040857809   -117731.935699141453    0.000000000000
 0.000000000000    0.000000000000   -93357.099434830001

-50150.247319206646    0.000024431933    0.000000000000
 0.000024431933   -117731.931178204642    0.000000000000
 0.000000000000    0.000000000000   -93357.095599734850

-50150.250054308221   -0.000132682572    0.000000000000
-0.000132682572   -117731.936026501062    0.000000000000
 0.000000000000    0.000000000000   -93357.099632977290

-50150.247546735038   -0.000044558026    0.000000000000
-0.000044558026   -117731.931581525510    0.000000000000
 0.000000000000    0.000000000000   -93357.095813446707

-50150.250403975799   -0.000241396106    0.000000000000
-0.000241396106   -117731.936646328599    0.000000000000
 0.000000000000    0.000000000000   -93357.100081840690

-50150.248348442285   -0.000276090875    0.000000000000
-0.000276090875   -117731.933002647624    0.000000000000
 0.000000000000    0.000000000000   -93357.096916022143

-50150.250794657943   -0.000308643643    0.000000000000
-0.000308643643   -117731.937338859425    0.000000000000
 0.000000000000    0.000000000000   -93357.100606274456

-50150.249053525353   -0.000276678160    0.000000000000
-0.000276678160   -117731.934252492036    0.000000000000
 0.000000000000    0.000000000000   -93357.097929868381

-50150.251092019142   -0.000121172718    0.000000000000
-0.000121172718   -117731.937865967746    0.000000000000
 0.000000000000    0.000000000000   -93357.101012683881

-50150.248221259069   -0.000033591273    0.000000000000
-0.000033591273   -117731.932777199952    0.000000000000
 0.000000000000    0.000000000000   -93357.096697723726

-50150.249894457331   -0.000535944971    0.000000000000
-0.000535944971   -117731.935743147449    0.000000000000
 0.000000000000    0.000000000000   -93357.099680655636

-50150.245001979543   -0.001351329105    0.000000000000
-0.001351329105   -117731.927070641541    0.000000000000
 0.000000000000    0.000000000000   -93357.092331425942

-50150.229914362659    0.005188417295    0.000000000000
 0.005188417295   -117731.900326024595    0.000000000000
 0.000000000000    0.000000000000   -93357.069927315373

-50150.257875419702   -0.037446208401    0.000000000000
-0.037446208401   -117731.949890301752    0.000000000000
 0.000000000000    0.000000000000   -93357.110849431454

-50150.237066617105    0.001497295249    0.000000000000
 0.001497295249   -117731.913004260336    0.000000000000
 0.000000000000    0.000000000000   -93357.081269998336

-50150.248313320102   -0.000221220320    0.000000000000
-0.000221220320   -117731.932940389292    0.000000000000
 0.000000000000    0.000000000000   -93357.096852682123

-50150.262810216926   -0.000199114319    0.000000000000
-0.000199114319   -117731.958637881587    0.000000000000
 0.000000000000    0.000000000000   -93357.118119373219

-50150.244280913408   -0.000234025444    0.000000000000
-0.000234025444   -117731.925792460577    0.000000000000
 0.000000000000    0.000000000000   -93357.091089022812

-50150.252588186995   -0.002538322887    0.000000000000
-0.002538322887   -117731.940518103744    0.000000000000
 0.000000000000    0.000000000000   -93357.103249181382

-50150.247820143210    0.000282109209    0.000000000000
 0.000282109209   -117731.932066174282    0.000000000000
 0.000000000000    0.000000000000   -93357.096203497495

-50150.277947997005   -0.013739093080    0.000000000000
-0.013739093080   -117731.985471398802    0.000000000000
 0.000000000000    0.000000000000   -93357.140269968135

-50150.199985525061    0.014076052435    0.000000000000
 0.014076052435   -117731.847273550695    0.000000000000
 0.000000000000    0.000000000000   -93357.025158182485

-50150.238618157702    0.004772150996    0.000000000000
 0.004772150996   -117731.915754540649    0.000000000000
 0.000000000000    0.000000000000   -93357.082258403621

-50150.326794610010   -0.069253971306    0.000000000000
-0.069253971306   -117732.072057714788    0.000000000000
 0.000000000000    0.000000000000   -93357.213893654902

-50150.263023440988    0.009297067942    0.000000000000
 0.009297067942   -117731.959015846005    0.000000000000
 0.000000000000    0.000000000000   -93357.119000468811

-50150.233808717501    0.002028420839    0.000000000000
 0.002028420839   -117731.907229234785    0.000000000000
 0.000000000000    0.000000000000   -93357.075609356136

-50150.241787096646    0.002869778695    0.000000000000
 0.002869778695   -117731.921371873497    0.000000000000
 0.000000000000    0.000000000000   -93357.087439289608

-50150.254273967395    0.012941326071    0.000000000000
 0.012941326071   -117731.943506346724    0.000000000000
 0.000000000000    0.000000000000   -93357.106053380790

-50150.253599974749   -0.000168769969    0.000000000000
-0.000168769969   -117731.942311620951    0.000000000000
 0.000000000000    0.000000000000   -93357.104776233115

-50150.249984981048   -0.000197707180    0.000000000000
-0.000197707180   -117731.935903609585    0.000000000000
 0.000000000000    0.000000000000   -93357.099370014417

-50150.251941006914   -0.000129506051    0.000000000000
-0.000129506051   -117731.939370900800    0.000000000000
 0.000000000000    0.000000000000   -93357.102286222478

-50150.251080248920   -0.000047995621    0.000000000000
-0.000047995621   -117731.937845103661    0.000000000000
 0.000000000000    0.000000000000   -93357.100998946800

-50150.253922826996   -0.003858602881    0.000000000000
-0.003858602881   -117731.942883917538    0.000000000000
 0.000000000000    0.000000000000   -93357.105846157268

-50150.254264691466   -0.001726468325    0.000000000000
-0.001726468325   -117731.943489912519    0.000000000000
 0.000000000000    0.000000000000   -93357.106051352777

-50150.254553638391    0.000407165454    0.000000000000
 0.000407165454   -117731.944002105112    0.000000000000
 0.000000000000    0.000000000000   -93357.106327175250

-50150.254098739591    0.001387659651    0.000000000000
 0.001387659651   -117731.943195742235    0.000000000000
 0.000000000000    0.000000000000   -93357.105665467301

-50150.252771495449    0.000792560868    0.000000000000
 0.000792560868   -117731.940843042481    0.000000000000
 0.000000000000    0.000000000000   -93357.103708536903

-50150.251269651955   -0.000255701508    0.000000000000
-0.000255701508   -117731.938180843979    0.000000000000
 0.000000000000    0.000000000000   -93357.101426650712

-50150.250489471378   -0.001248349382    0.000000000000
-0.001248349382   -117731.936797879724    0.000000000000
 0.000000000000    0.000000000000   -93357.100201999216

-50150.249607251666   -0.002272770287    0.000000000000
-0.002272770287   -117731.935234038858    0.000000000000
 0.000000000000    0.000000000000   -93357.098864609405

-50150.247884629760   -0.003106760260    0.000000000000
-0.003106760260   -117731.932180484204    0.000000000000
 0.000000000000    0.000000000000   -93357.096331782086

-50150.245638107881   -0.003553874579    0.000000000000
-0.003553874579   -117731.928198254085    0.000000000000
 0.000000000000    0.000000000000   -93357.093058367638

-50150.244273119933   -0.003067346990    0.000000000000
-0.003067346990   -117731.925778649398    0.000000000000
 0.000000000000    0.000000000000   -93357.091132848844

-50150.250710203545   -0.002761857589    0.000000000000
-0.002761857589   -117731.937189155462    0.000000000000
 0.000000000000    0.000000000000   -93357.100892742194

-50150.249943201678   -0.002858345101    0.000000000000
-0.002858345101   -117731.935829551818    0.000000000000
 0.000000000000    0.000000000000   -93357.099641630790

-50150.249289071951   -0.003689519742    0.000000000000
-0.003689519742   -117731.934670028015    0.000000000000
 0.000000000000    0.000000000000   -93357.098682242038

-50150.250975569739   -0.003817140154    0.000000000000
-0.003817140154   -117731.937659547868    0.000000000000
 0.000000000000    0.000000000000   -93357.101115753612

-50150.247205787557   -0.003815123780    0.000000000000
-0.003815123780   -117731.930977155265    0.000000000000
 0.000000000000    0.000000000000   -93357.095479558935

-50150.251468504197   -0.002677540834    0.000000000000
-0.002677540834   -117731.938533333479    0.000000000000
 0.000000000000    0.000000000000   -93357.101781266188

-50150.247267777231   -0.002016914677    0.000000000000
-0.002016914677   -117731.931087039382    0.000000000000
 0.000000000000    0.000000000000   -93357.095464447717

-50150.251336186382   -0.001393914641    0.000000000000
-0.001393914641   -117731.938298784225    0.000000000000
 0.000000000000    0.000000000000   -93357.101533572684

-50150.247539539858   -0.000995068093    0.000000000000
-0.000995068093   -117731.931568770873    0.000000000000
 0.000000000000    0.000000000000   -93357.095743595637

-50150.251736380902   -0.001875928903    0.000000000000
-0.001875928903   -117731.939008177011    0.000000000000
 0.000000000000    0.000000000000   -93357.102110758322

-50150.246755613916   -0.001397584754    0.000000000000
-0.001397584754   -117731.930179167350    0.000000000000
 0.000000000000    0.000000000000   -93357.094485056965

-50150.251520557147   -0.000553093682    0.000000000000
-0.000553093682   -117731.938625603565    0.000000000000
 0.000000000000    0.000000000000   -93357.101790109213

-50150.246193885396    0.000400821002    0.000000000000
 0.000400821002   -117731.929183436150    0.000000000000
 0.000000000000    0.000000000000   -93357.093670072762

-50150.251345751909    0.001197388760    0.000000000000
 0.001197388760   -117731.938315740234    0.000000000000
 0.000000000000    0.000000000000   -93357.101535981725

-50150.244803993817    0.001543566969    0.000000000000
 0.001543566969   -117731.926719686715    0.000000000000
 0.000000000000    0.000000000000   -93357.091753009765

-50150.252020014857    0.000424280581    0.000000000000
 0.000424280581   -117731.939510952536    0.000000000000
 0.000000000000    0.000000000000   -93357.102549709467

-50150.241950382784   -0.000032105914    0.000000000000
-0.000032105914   -117731.921661318978    0.000000000000
 0.000000000000    0.000000000000   -93357.087739529554

-50150.251834627546   -0.000056543934    0.000000000000
-0.000056543934   -117731.939182331320    0.000000000000
 0.000000000000    0.000000000000   -93357.102291355564

-50150.239497449918   -0.001248770773    0.000000000000
-0.001248770773   -117731.917313201440    0.000000000000
 0.000000000000    0.000000000000   -93357.084332229788

-50150.251268275701   -0.001363843903    0.000000000000
-0.001363843903   -117731.938178404656    0.000000000000
 0.000000000000    0.000000000000   -93357.101495356590

-50150.237330470402   -0.003264627555    0.000000000000
-0.003264627555   -117731.913471969863    0.000000000000
 0.000000000000    0.000000000000   -93357.081261602230

-50150.251948892881   -0.004178756634    0.000000000000
-0.004178756634   -117731.939384880476    0.000000000000
 0.000000000000    0.000000000000   -93357.102640707337

-50150.233770568033   -0.005889059095    0.000000000000
-0.005889059095   -117731.907161613461    0.000000000000
 0.000000000000    0.000000000000   -93357.075926548365

-50150.250297182807   -0.005248033485    0.000000000000
-0.005248033485   -117731.936457026371    0.000000000000
 0.000000000000    0.000000000000   -93357.100437150002

-50150.256625544876   -0.005731647587    0.000000000000
-0.005731647587   -117731.947674810624    0.000000000000
 0.000000000000    0.000000000000   -93357.110134650517

-50150.238867016968   -0.006350222819    0.000000000000
-0.006350222819   -117731.916195682497    0.000000000000
 0.000000000000    0.000000000000   -93357.083594336393

-50150.252561143476   -0.005063878535    0.000000000000
-0.005063878535   -117731.940470168687    0.000000000000
 0.000000000000    0.000000000000   -93357.103701850108

-50150.238054055517   -0.003550160176    0.000000000000
-0.003550160176   -117731.914754612211    0.000000000000
 0.000000000000    0.000000000000   -93357.082504366001

-50150.253142085756   -0.001692797199    0.000000000000
-0.001692797199   -117731.941499958542    0.000000000000
 0.000000000000    0.000000000000   -93357.104320769286

-50150.241010490310   -0.000562988802    0.000000000000
-0.000562988802   -117731.919995247939    0.000000000000
 0.000000000000    0.000000000000   -93357.086652225495

-50150.253032404653    0.000397075258    0.000000000000
 0.000397075258   -117731.941305535336    0.000000000000
 0.000000000000    0.000000000000   -93357.104071483132

-50150.243860474227    0.001306105718    0.000000000000
 0.001306105718   -117731.925047185650    0.000000000000
 0.000000000000    0.000000000000   -93357.090549228509

-50150.252421095938    0.001060065692    0.000000000000
 0.001060065692   -117731.940221916870    0.000000000000
 0.000000000000    0.000000000000   -93357.103128172603

-50150.245717763144    0.001347649275    0.000000000000
 0.001347649275   -117731.928339452570    0.000000000000
 0.000000000000    0.000000000000   -93357.093058241036

-50150.251659005575    0.000506082778    0.000000000000
 0.000506082778   -117731.938871019956    0.000000000000
 0.000000000000    0.000000000000   -93357.101969110838

-50150.246189804981    0.000267415544    0.000000000000
 0.000267415544   -117731.929176203033    0.000000000000
 0.000000000000    0.000000000000   -93357.093645085464

-50150.250503283860   -0.000251540307    0.000000000000
-0.000251540307   -117731.936822364092    0.000000000000
 0.000000000000    0.000000000000   -93357.100232909230

-50150.246694117290   -0.000647651243    0.000000000000
-0.000647651243   -117731.930070157425    0.000000000000
 0.000000000000    0.000000000000   -93357.094431822858

-50150.250070464113   -0.001114293121    0.000000000000
-0.001114293121   -117731.936055139086    0.000000000000
 0.000000000000    0.000000000000   -93357.099611539568

-50150.247281708660   -0.001434388811    0.000000000000
-0.001434388811   -117731.931111734317    0.000000000000
 0.000000000000    0.000000000000   -93357.095424338157

-50150.250457252594   -0.002118331251    0.000000000000
-0.002118331251   -117731.936740768317    0.000000000000
 0.000000000000    0.000000000000   -93357.100242693021

-50150.247417824241   -0.002604889964    0.000000000000
-0.002604889964   -117731.931353015883    0.000000000000
 0.000000000000    0.000000000000   -93357.095740947785

-50150.250367646877   -0.002839980582    0.000000000000
-0.002839980582   -117731.936581931514    0.000000000000
 0.000000000000    0.000000000000   -93357.100168096920

-50150.248512439372   -0.003642538583    0.000000000000
-0.003642538583   -117731.933293352980    0.000000000000
 0.000000000000    0.000000000000   -93357.097449343026

-50150.250293806705   -0.003367139373    0.000000000000
-0.003367139373   -117731.936451041052    0.000000000000
 0.000000000000    0.000000000000   -93357.100115306341

-50150.250853959231   -0.003533655394    0.000000000000
-0.003533655394   -117731.937443978954    0.000000000000
 0.000000000000    0.000000000000   -93357.100992686464

-50150.250613462056   -0.003119048597    0.000000000000
-0.003119048597   -117731.937017668926    0.000000000000
 0.000000000000    0.000000000000   -93357.100640208315

-50150.252765257348   -0.002079084704    0.000000000000
-0.002079084704   -117731.940831985499    0.000000000000
 0.000000000000    0.000000000000   -93357.103905554453

-50150.252202607517   -0.001621172348    0.000000000000
-0.001621172348   -117731.939834620862    0.000000000000
 0.000000000000    0.000000000000   -93357.103033958003

-50150.251125851501   -0.002025275703    0.000000000000
-0.002025275703   -117731.937925941471    0.000000000000
 0.000000000000    0.000000000000   -93357.101480618381

-50150.245684869660   -0.001525659635    0.000000000000
-0.001525659635   -117731.928281146655    0.000000000000
 0.000000000000    0.000000000000   -93357.093396481971

-50150.244634087947   -0.002692173274    0.000000000000
-0.002692173274   -117731.926418508840    0.000000000000
 0.000000000000    0.000000000000   -93357.091705272192

-50150.246456281289   -0.003419404283    0.000000000000
-0.003419404283   -117731.929648565143    0.000000000000
 0.000000000000    0.000000000000   -93357.094318551070

-50150.249639180583   -0.002994695736    0.000000000000
-0.002994695736   -117731.935290636902    0.000000000000
 0.000000000000    0.000000000000   -93357.098993176158

-50150.250315437828   -0.001435220177    0.000000000000
-0.001435220177   -117731.936489384389    0.000000000000
 0.000000000000    0.000000000000   -93357.099971284566

-50150.249912960193   -0.001352713041    0.000000000000
-0.001352713041   -117731.935775944366    0.000000000000
 0.000000000000    0.000000000000   -93357.099370836513

-50150.252493061358   -0.000994135966    0.000000000000
-0.000994135966   -117731.940349484183    0.000000000000
 0.000000000000    0.000000000000   -93357.103226104256

-50150.254061966814    0.000789678071    0.000000000000
 0.000789678071   -117731.943130557789    0.000000000000
 0.000000000000    0.000000000000   -93357.105534698465

-50150.253845408180    0.000609015385    0.000000000000
 0.000609015385   -117731.942746681307    0.000000000000
 0.000000000000    0.000000000000   -93357.105156074686

-50150.254813149077   -0.000806641806    0.000000000000
-0.000806641806   -117731.944462118525    0.000000000000
 0.000000000000    0.000000000000   -93357.106613217227

-50150.253821467093   -0.001684765002    0.000000000000
-0.001684765002   -117731.942704243396    0.000000000000
 0.000000000000    0.000000000000   -93357.105264048732

-50150.252658895639   -0.003563210758    0.000000000000
-0.003563210758   -117731.940643446549    0.000000000000
 0.000000000000    0.000000000000   -93357.103821728291

-50150.254049270428   -0.004638596758    0.000000000000
-0.004638596758   -117731.943108054431    0.000000000000
 0.000000000000    0.000000000000   -93357.106243079907

-50150.242447373872   -0.006514620086    0.000000000000
-0.006514620086   -117731.922542295768    0.000000000000
 0.000000000000    0.000000000000   -93357.088913411833

-50150.245714920078   -0.003737656648    0.000000000000
-0.003737656648   -117731.928334414188    0.000000000000
 0.000000000000    0.000000000000   -93357.093449466280

-50150.249065857002   -0.005957366168    0.000000000000
-0.005957366168   -117731.934274353174    0.000000000000
 0.000000000000    0.000000000000   -93357.098663489567

-50150.252860076012   -0.006463776211    0.000000000000
-0.006463776211   -117731.941000060600    0.000000000000
 0.000000000000    0.000000000000   -93357.103865736804

-50150.255400465001   -0.004488601779    0.000000000000
-0.004488601779   -117731.945503206545    0.000000000000
 0.000000000000    0.000000000000   -93357.107630059298

-50150.256765354919   -0.001495234854    0.000000000000
-0.001495234854   -117731.947922639738    0.000000000000
 0.000000000000    0.000000000000   -93357.109849038097

-50150.255978551242    0.000748908867    0.000000000000
 0.000748908867   -117731.946527935739    0.000000000000
 0.000000000000    0.000000000000   -93357.108711137451

-50150.253732454439    0.001228112824    0.000000000000
 0.001228112824   -117731.942546458828    0.000000000000
 0.000000000000    0.000000000000   -93357.105352001789

-50150.251799582031    0.000348779400    0.000000000000
 0.000348779400   -117731.939120209732    0.000000000000
 0.000000000000    0.000000000000   -93357.102416630369

-50150.250159940653   -0.000590604959    0.000000000000
-0.000590604959   -117731.936213747656    0.000000000000
 0.000000000000    0.000000000000   -93357.099877633125

-50150.249214645228   -0.001116960909    0.000000000000
-0.001116960909   -117731.934538097310    0.000000000000
 0.000000000000    0.000000000000   -93357.098375273519

-50150.248337403449   -0.002123163358    0.000000000000
-0.002123163358   -117731.932983080391    0.000000000000
 0.000000000000    0.000000000000   -93357.097027962358

-50150.246380362507   -0.003114515660    0.000000000000
-0.003114515660   -117731.929513989657    0.000000000000
 0.000000000000    0.000000000000   -93357.094126651908

-50150.244688170445   -0.003058833544    0.000000000000
-0.003058833544   -117731.926514375926    0.000000000000
 0.000000000000    0.000000000000   -93357.091660147693

-50150.244530416487   -0.002372726580    0.000000000000
-0.002372726580   -117731.926234738552    0.000000000000
 0.000000000000    0.000000000000   -93357.091499587666

-50150.245122818829   -0.001595068370    0.000000000000
-0.001595068370   -117731.927284843550    0.000000000000
 0.000000000000    0.000000000000   -93357.092479887331

-50150.250767439771   -0.000653671323    0.000000000000
-0.000653671323   -117731.937290613918    0.000000000000
 0.000000000000    0.000000000000   -93357.100995768138

-50150.253528046116   -0.000371365984    0.000000000000
-0.000371365984   -117731.942184120562    0.000000000000
 0.000000000000    0.000000000000   -93357.105047436460

-50150.249107398442   -0.000449423168    0.000000000000
-0.000449423168   -117731.934347990871    0.000000000000
 0.000000000000    0.000000000000   -93357.098509660311

-50150.250508278288   -0.000413843893    0.000000000000
-0.000413843893   -117731.936831219267    0.000000000000
 0.000000000000    0.000000000000   -93357.100662729383

-50150.251898931550   -0.001508735247    0.000000000000
-0.001508735247   -117731.939296319033    0.000000000000
 0.000000000000    0.000000000000   -93357.102654269009

-50150.249239818222   -0.003552236573    0.000000000000
-0.003552236573   -117731.934582720540    0.000000000000
 0.000000000000    0.000000000000   -93357.098748583201

-50150.250816277025   -0.003903935414    0.000000000000
-0.003903935414   -117731.937377182767    0.000000000000
 0.000000000000    0.000000000000   -93357.100976626170

-50150.247364115778   -0.004471680415    0.000000000000
-0.004471680415   -117731.931257811491    0.000000000000
 0.000000000000    0.000000000000   -93357.095856357031

-50150.250119020347   -0.002303342848    0.000000000000
-0.002303342848   -117731.936141211525    0.000000000000
 0.000000000000    0.000000000000   -93357.099866993274

-50150.246122407865   -0.002293841294    0.000000000000
-0.002293841294   -117731.929056734909    0.000000000000
 0.000000000000    0.000000000000   -93357.093887419571

-50150.252147016712   -0.001350567917    0.000000000000
-0.001350567917   -117731.939736078959    0.000000000000
 0.000000000000    0.000000000000   -93357.102828816947

-50150.247697984007   -0.000795150716    0.000000000000
-0.000795150716   -117731.931849632805    0.000000000000
 0.000000000000    0.000000000000   -93357.096110810759

-50150.252745650461   -0.002422040846    0.000000000000
-0.002422040846   -117731.940797228919    0.000000000000
 0.000000000000    0.000000000000   -93357.103673911042

-50150.247833468231   -0.001930656652    0.000000000000
-0.001930656652   -117731.932089794223    0.000000000000
 0.000000000000    0.000000000000   -93357.096195488193

-50150.251843948296   -0.001224995300    0.000000000000
-0.001224995300   -117731.939198853448    0.000000000000
 0.000000000000    0.000000000000   -93357.102315048993

-50150.246290816256   -0.000971133294    0.000000000000
-0.000971133294   -117731.929355257889    0.000000000000
 0.000000000000    0.000000000000   -93357.093850444420

-50150.252946829482   -0.000107779536    0.000000000000
-0.000107779536   -117731.941153843232    0.000000000000
 0.000000000000    0.000000000000   -93357.103981923574

-50150.246165880511    0.000482025688    0.000000000000
 0.000482025688   -117731.929133794620    0.000000000000
 0.000000000000    0.000000000000   -93357.093738695112

-50150.252763077646   -0.000897336989    0.000000000000
-0.000897336989   -117731.940828121034    0.000000000000
 0.000000000000    0.000000000000   -93357.103732837830

-50150.243982931606   -0.000655526823    0.000000000000
-0.000655526823   -117731.925264255726    0.000000000000
 0.000000000000    0.000000000000   -93357.090646476834

-50150.250872753328   -0.000037902584    0.000000000000
-0.000037902584   -117731.937477293788    0.000000000000
 0.000000000000    0.000000000000   -93357.100914116309

-50150.240357734438   -0.000878063082    0.000000000000
-0.000878063082   -117731.918838158381    0.000000000000
 0.000000000000    0.000000000000   -93357.085423364246

-50150.251004430786   -0.000292710383    0.000000000000
-0.000292710383   -117731.937710707876    0.000000000000
 0.000000000000    0.000000000000   -93357.101099228355

-50150.239082164931   -0.001515274103    0.000000000000
-0.001515274103   -117731.916577058408    0.000000000000
 0.000000000000    0.000000000000   -93357.083627809188

-50150.250707072642   -0.003053956953    0.000000000000
-0.003053956953   -117731.937183604387    0.000000000000
 0.000000000000    0.000000000000   -93357.100658844793

-50150.237600846245   -0.003826151648    0.000000000000
-0.003826151648   -117731.913951242139    0.000000000000
 0.000000000000    0.000000000000   -93357.081385635276

-50150.249976038976   -0.003304570406    0.000000000000
-0.003304570406   -117731.935887759260    0.000000000000
 0.000000000000    0.000000000000   -93357.099578582085

-50150.236209276394   -0.003614407269    0.000000000000
-0.003614407269   -117731.911484516779    0.000000000000
 0.000000000000    0.000000000000   -93357.079219010600

-50150.253233337091   -0.003905753455    0.000000000000
-0.003905753455   -117731.941661712539    0.000000000000
 0.000000000000    0.000000000000   -93357.104566084890

-50150.238400629583   -0.002717174385    0.000000000000
-0.002717174385   -117731.915368953545    0.000000000000
 0.000000000000    0.000000000000   -93357.082353941689

-50150.253795170094   -0.004551626576    0.000000000000
-0.004551626576   -117731.942657630803    0.000000000000
 0.000000000000    0.000000000000   -93357.105812092093

-50150.243650456949   -0.001343482926    0.000000000000
-0.001343482926   -117731.924674906040    0.000000000000
 0.000000000000    0.000000000000   -93357.090511643793

-50150.252121536061   -0.006408117803    0.000000000000
-0.006408117803   -117731.939690911939    0.000000000000
 0.000000000000    0.000000000000   -93357.103245675520

-50150.242711473824   -0.007232904932    0.000000000000
-0.007232904932   -117731.923010443745    0.000000000000
 0.000000000000    0.000000000000   -93357.089193704887

-50150.256836796849   -0.003168172869    0.000000000000
-0.003168172869   -117731.948049279948    0.000000000000
 0.000000000000    0.000000000000   -93357.110207446865

-50150.238293434479   -0.005407428830    0.000000000000
-0.005407428830   -117731.915178938958    0.000000000000
 0.000000000000    0.000000000000   -93357.082762396109

-50150.253844412655   -0.003451274148    0.000000000000
-0.003451274148   -117731.942744918691    0.000000000000
 0.000000000000    0.000000000000   -93357.105705424794

-50150.239696146717   -0.002872699402    0.000000000000
-0.002872699402   -117731.917665416084    0.000000000000
 0.000000000000    0.000000000000   -93357.084834959081

-50150.255759932683   -0.001237255725    0.000000000000
-0.001237255725   -117731.946140408181    0.000000000000
 0.000000000000    0.000000000000   -93357.108416824238

-50150.243560171177    0.000146170835    0.000000000000
 0.000146170835   -117731.924514863815    0.000000000000
 0.000000000000    0.000000000000   -93357.090396439933

-50150.254990390473   -0.000208839113    0.000000000000
-0.000208839113   -117731.944776301272    0.000000000000
 0.000000000000    0.000000000000   -93357.107097024680

-50150.246136845264    0.000880818580    0.000000000000
 0.000880818580   -117731.929082327115    0.000000000000
 0.000000000000    0.000000000000   -93357.093911994816

-50150.253474162470   -0.000125990650    0.000000000000
-0.000125990650   -117731.942088604119    0.000000000000
 0.000000000000    0.000000000000   -93357.104706255195

-50150.246669733024    0.000285432816    0.000000000000
 0.000285432816   -117731.930026933784    0.000000000000
 0.000000000000    0.000000000000   -93357.094476048209

-50150.251701202200   -0.000376358057    0.000000000000
-0.000376358057   -117731.938945818460    0.000000000000
 0.000000000000    0.000000000000   -93357.102006804314

-50150.246629865796   -0.000632797550    0.000000000000
-0.000632797550   -117731.929956264110    0.000000000000
 0.000000000000    0.000000000000   -93357.094375179411

-50150.250385863430   -0.001015526868    0.000000000000
-0.001015526868   -117731.936614222213    0.000000000000
 0.000000000000    0.000000000000   -93357.100059750897

-50150.246907582783   -0.001010727716    0.000000000000
-0.001010727716   -117731.930448551328    0.000000000000
 0.000000000000    0.000000000000   -93357.094888865773

-50150.249588488616   -0.001306693334    0.000000000000
-0.001306693334   -117731.935200779670    0.000000000000
 0.000000000000    0.000000000000   -93357.098929777538

-50150.247261958546   -0.001527128676    0.000000000000
-0.001527128676   -117731.931076725523    0.000000000000
 0.000000000000    0.000000000000   -93357.095544910248

-50150.249086964846   -0.001746883930    0.000000000000
-0.001746883930   -117731.934311768753    0.000000000000
 0.000000000000    0.000000000000   -93357.098258226455

-50150.248094111099   -0.002699049529    0.000000000000
-0.002699049529   -117731.932551816222    0.000000000000
 0.000000000000    0.000000000000   -93357.096865323343

-50150.249281069133   -0.002672274459    0.000000000000
-0.002672274459   -117731.934655842109    0.000000000000
 0.000000000000    0.000000000000   -93357.098618222430

-50150.249801861144   -0.003153567067    0.000000000000
-0.003153567067   -117731.935579008728    0.000000000000
 0.000000000000    0.000000000000   -93357.099445772255

-50150.249902487718   -0.002789455121    0.000000000000
-0.002789455121   -117731.935757381536    0.000000000000
 0.000000000000    0.000000000000   -93357.099596971908

-50150.251584555685   -0.002528084845    0.000000000000
-0.002528084845   -117731.938739049525    0.000000000000
 0.000000000000    0.000000000000   -93357.102119950927

-50150.250608933944   -0.002124045681    0.000000000000
-0.002124045681   -117731.937009642745    0.000000000000
 0.000000000000    0.000000000000   -93357.100686015721

-50150.252675355718   -0.001657153813    0.000000000000
-0.001657153813   -117731.940672623998    0.000000000000
 0.000000000000    0.000000000000   -93357.103751823219

-50150.251489348368   -0.001266397181    0.000000000000
-0.001266397181   -117731.938570283382    0.000000000000
 0.000000000000    0.000000000000   -93357.101996904908

-50150.253543589526   -0.000843646268    0.000000000000
-0.000843646268   -117731.942211673057    0.000000000000
 0.000000000000    0.000000000000   -93357.105066104748

-50150.249646331606   -0.000413444939    0.000000000000
-0.000413444939   -117731.935303314473    0.000000000000
 0.000000000000    0.000000000000   -93357.099252154439

-50150.252655699158   -0.000322352361    0.000000000000
-0.000322352361   -117731.940637780703    0.000000000000
 0.000000000000    0.000000000000   -93357.103770471731

-50150.252639746250   -0.000570211801    0.000000000000
-0.000570211801   -117731.940609502504    0.000000000000
 0.000000000000    0.000000000000   -93357.103801705642

-50150.252541582988   -0.001369022250    0.000000000000
-0.001369022250   -117731.940435496537    0.000000000000
 0.000000000000    0.000000000000   -93357.103722334810

-50150.242892732800   -0.002672192328    0.000000000000
-0.002672192328   -117731.923331748141    0.000000000000
 0.000000000000    0.000000000000   -93357.089280893328

-50150.244636159128   -0.003728412989    0.000000000000
-0.003728412989   -117731.926422180084    0.000000000000
 0.000000000000    0.000000000000   -93357.091749555475

-50150.249349553647   -0.003201902996    0.000000000000
-0.003201902996   -117731.934777238901    0.000000000000
 0.000000000000    0.000000000000   -93357.098710006860

-50150.250242418537   -0.001015520498    0.000000000000
-0.001015520498   -117731.936359949526    0.000000000000
 0.000000000000    0.000000000000   -93357.099991888128

-50150.249264785671   -0.001342382710    0.000000000000
-0.001342382710   -117731.934626977512    0.000000000000
 0.000000000000    0.000000000000   -93357.098508329858

-50150.250923993692   -0.001738728595    0.000000000000
-0.001738728595   -117731.937568123292    0.000000000000
 0.000000000000    0.000000000000   -93357.100984055316

-50150.252496544017   -0.000211818948    0.000000000000
-0.000211818948   -117731.940355657978    0.000000000000
 0.000000000000    0.000000000000   -93357.103292303029

-50150.253209892675   -0.000524205628    0.000000000000
-0.000524205628   -117731.941620153855    0.000000000000
 0.000000000000    0.000000000000   -93357.104267296178

-50150.255135236126   -0.001346266569    0.000000000000
-0.001346266569   -117731.945033056370    0.000000000000
 0.000000000000    0.000000000000   -93357.107075044623

-50150.255244191212   -0.000934738290    0.000000000000
-0.000934738290   -117731.945226192620    0.000000000000
 0.000000000000    0.000000000000   -93357.107261631696

-50150.254075774283   -0.002462584522    0.000000000000
-0.002462584522   -117731.943155033485    0.000000000000
 0.000000000000    0.000000000000   -93357.105664909206

-50150.254227774618   -0.004356454811    0.000000000000
-0.004356454811   -117731.943424472905    0.000000000000
 0.000000000000    0.000000000000   -93357.106124904720

-50150.251587598701   -0.004239225795    0.000000000000
-0.004239225795   -117731.938744443905    0.000000000000
 0.000000000000    0.000000000000   -93357.102340581536

-50150.247173264623   -0.002228931538    0.000000000000
-0.002228931538   -117731.930919506733    0.000000000000
 0.000000000000    0.000000000000   -93357.095854758052

-50150.249592153501   -0.000809481189    0.000000000000
-0.000809481189   -117731.935207280505    0.000000000000
 0.000000000000    0.000000000000   -93357.099879925954

-50150.257978112684   -0.003947649066    0.000000000000
-0.003947649066   -117731.950072398584    0.000000000000
 0.000000000000    0.000000000000   -93357.111758654981

-50150.246052864662   -0.004101864244    0.000000000000
-0.004101864244   -117731.928933461866    0.000000000000
 0.000000000000    0.000000000000   -93357.094047013263

-50150.229406122773   -0.007973697261    0.000000000000
-0.007973697261   -117731.899425108248    0.000000000000
 0.000000000000    0.000000000000   -93357.069615547138

-50150.263181395872   -0.006830611204    0.000000000000
-0.006830611204   -117731.959295841458    0.000000000000
 0.000000000000    0.000000000000   -93357.119244932808

-50150.258996582088   -0.004441048786    0.000000000000
-0.004441048786   -117731.951877754604    0.000000000000
 0.000000000000    0.000000000000   -93357.112552923310

-50150.257853959061   -0.001071391017    0.000000000000
-0.001071391017   -117731.949852319114    0.000000000000
 0.000000000000    0.000000000000   -93357.110941132123

-50150.256113588846    0.000280358202    0.000000000000
 0.000280358202   -117731.946767305912    0.000000000000
 0.000000000000    0.000000000000   -93357.108858981199

-50150.253568266868   -0.000380433415    0.000000000000
-0.000380433415   -117731.942255417627    0.000000000000
 0.000000000000    0.000000000000   -93357.105313313994

-50150.251081623093   -0.001211092824    0.000000000000
-0.001211092824   -117731.937847541965    0.000000000000
 0.000000000000    0.000000000000   -93357.101536571747

-50150.249255880757   -0.001441737443    0.000000000000
-0.001441737443   -117731.934611193312    0.000000000000
 0.000000000000    0.000000000000   -93357.098669703002

-50150.247864710545   -0.001668155675    0.000000000000
-0.001668155675   -117731.932145176252    0.000000000000
 0.000000000000    0.000000000000   -93357.096508004179

-50150.246218379223   -0.002053195442    0.000000000000
-0.002053195442   -117731.929226855718    0.000000000000
 0.000000000000    0.000000000000   -93357.094030994442

-50150.244848987801   -0.002231120862    0.000000000000
-0.002231120862   -117731.926799444656    0.000000000000
 0.000000000000    0.000000000000   -93357.091995640105

-50150.244428868456   -0.002107966094    0.000000000000
-0.002107966094   -117731.926054732656    0.000000000000
 0.000000000000    0.000000000000   -93357.091381717997

-50150.245140145285   -0.001536026446    0.000000000000
-0.001536026446   -117731.927315556532    0.000000000000
 0.000000000000    0.000000000000   -93357.092449207950

-50150.247072344966   -0.000792646742    0.000000000000
-0.000792646742   -117731.930740613097    0.000000000000
 0.000000000000    0.000000000000   -93357.095342842164

-50150.248107852305   -0.000883184972    0.000000000000
-0.000883184972   -117731.932576174659    0.000000000000
 0.000000000000    0.000000000000   -93357.096930902859

-50150.248629112866   -0.000398037023    0.000000000000
-0.000398037023   -117731.933500171799    0.000000000000
 0.000000000000    0.000000000000   -93357.097717992423

-50150.249791199021   -0.000085187877    0.000000000000
-0.000085187877   -117731.935560109647    0.000000000000
 0.000000000000    0.000000000000   -93357.099514874950

-50150.248818619039   -0.000449781185    0.000000000000
-0.000449781185   -117731.933836094671    0.000000000000
 0.000000000000    0.000000000000   -93357.098087191349

-50150.249390266479   -0.000179712897    0.000000000000
-0.000179712897   -117731.934849408892    0.000000000000
 0.000000000000    0.000000000000   -93357.099009974292

-50150.249284954487   -0.000072567180    0.000000000000
-0.000072567180   -117731.934662730666    0.000000000000
 0.000000000000    0.000000000000   -93357.098843783140

-50150.245349565521   -0.000029657405    0.000000000000
-0.000029657405   -117731.927686780517    0.000000000000
 0.000000000000    0.000000000000   -93357.093044737616

-50150.249821171572    0.000226518898    0.000000000000
 0.000226518898   -117731.935613240115    0.000000000000
 0.000000000000    0.000000000000   -93357.099675422214

-50150.243567128207   -0.003321671712    0.000000000000
-0.003321671712   -117731.924527195428    0.000000000000
 0.000000000000    0.000000000000   -93357.090385471849

-50150.251459257750   -0.003003000188    0.000000000000
-0.003003000188   -117731.938516943890    0.000000000000
 0.000000000000    0.000000000000   -93357.101968176998

-50150.246208872282   -0.002688695641    0.000000000000
-0.002688695641   -117731.929210004600    0.000000000000
 0.000000000000    0.000000000000   -93357.094289663815

-50150.249288392442   -0.001916764106    0.000000000000
-0.001916764106   -117731.934668823960    0.000000000000
 0.000000000000    0.000000000000   -93357.098693078209

-50150.244406399695   -0.002719591233    0.000000000000
-0.002719591233   -117731.926014904544    0.000000000000
 0.000000000000    0.000000000000   -93357.091486767356

-50150.251762834727   -0.002493382074    0.000000000000
-0.002493382074   -117731.939055070485    0.000000000000
 0.000000000000    0.000000000000   -93357.102364857070

-50150.246821881970   -0.001293691221    0.000000000000
-0.001293691221   -117731.930296637234    0.000000000000
 0.000000000000    0.000000000000   -93357.094972370192

-50150.251710844459   -0.000808869190    0.000000000000
-0.000808869190   -117731.938962911547    0.000000000000
 0.000000000000    0.000000000000   -93357.102250242518

-50150.248326746027    0.000158009961    0.000000000000
 0.000158009961   -117731.932964189386    0.000000000000
 0.000000000000    0.000000000000   -93357.097096180893

-50150.251302547156   -0.000646671447    0.000000000000
-0.000646671447   -117731.938239155279    0.000000000000
 0.000000000000    0.000000000000   -93357.101612528728

-50150.246571592819   -0.001620786846    0.000000000000
-0.001620786846   -117731.929852968577    0.000000000000
 0.000000000000    0.000000000000   -93357.094385961333

-50150.253598994808   -0.002134727576    0.000000000000
-0.002134727576   -117731.942309884907    0.000000000000
 0.000000000000    0.000000000000   -93357.105035678251

-50150.246638332057   -0.001283689193    0.000000000000
-0.001283689193   -117731.929971272009    0.000000000000
 0.000000000000    0.000000000000   -93357.094494677192

-50150.253391031132   -0.000414443759    0.000000000000
-0.000414443759   -117731.941941244469    0.000000000000
 0.000000000000    0.000000000000   -93357.104730429433

-50150.245507762360    0.000283434288    0.000000000000
 0.000283434288   -117731.927967201773    0.000000000000
 0.000000000000    0.000000000000   -93357.092922032767

-50150.252138191732   -0.000310024651    0.000000000000
-0.000310024651   -117731.939720435970    0.000000000000
 0.000000000000    0.000000000000   -93357.102880751670

-50150.241630690332   -0.001794806783    0.000000000000
-0.001794806783   -117731.921094625577    0.000000000000
 0.000000000000    0.000000000000   -93357.087289743140

-50150.252950202324   -0.002380476178    0.000000000000
-0.002380476178   -117731.941159822352    0.000000000000
 0.000000000000    0.000000000000   -93357.104119376891

-50150.240310175846   -0.002542130415    0.000000000000
-0.002542130415   -117731.918753855236    0.000000000000
 0.000000000000    0.000000000000   -93357.085434341832

-50150.251226784108   -0.001675964102    0.000000000000
-0.001675964102   -117731.938104856323    0.000000000000
 0.000000000000    0.000000000000   -93357.101553125365

-50150.239103555126   -0.001782182786    0.000000000000
-0.001782182786   -117731.916614974878    0.000000000000
 0.000000000000    0.000000000000   -93357.083617741591

-50150.249230191912   -0.002097638785    0.000000000000
-0.002097638785   -117731.934565656222    0.000000000000
 0.000000000000    0.000000000000   -93357.098550124123

-50150.237179217671   -0.003639214302    0.000000000000
-0.003639214302   -117731.913203853910    0.000000000000
 0.000000000000    0.000000000000   -93357.080568124526

-50150.250852856567   -0.003729689120    0.000000000000
-0.003729689120   -117731.937442023918    0.000000000000
 0.000000000000    0.000000000000   -93357.100911890404

-50150.240023256643   -0.003827948776    0.000000000000
-0.003827948776   -117731.918245254114    0.000000000000
 0.000000000000    0.000000000000   -93357.084593636915

-50150.252090072689   -0.002010423984    0.000000000000
-0.002010423984   -117731.939635138348    0.000000000000
 0.000000000000    0.000000000000   -93357.102661399884

-50150.244733402746   -0.001608850544    0.000000000000
-0.001608850544   -117731.926594554941    0.000000000000
 0.000000000000    0.000000000000   -93357.091550994228

-50150.253107154364   -0.000297920870    0.000000000000
-0.000297920870   -117731.941438038135    0.000000000000
 0.000000000000    0.000000000000   -93357.104185009812

-50150.247751704926   -0.000168614663    0.000000000000
-0.000168614663   -117731.931944860407    0.000000000000
 0.000000000000    0.000000000000   -93357.096356358976

-50150.262132291253   -0.000009845036    0.000000000000
-0.000009845036   -117731.957436180484    0.000000000000
 0.000000000000    0.000000000000   -93357.117913719238

-50150.245425150177    0.000606347708    0.000000000000
 0.000606347708   -117731.927820762357    0.000000000000
 0.000000000000    0.000000000000   -93357.092932490559

-50150.264753743555    0.000261600113    0.000000000000
 0.000261600113   -117731.962083022256    0.000000000000
 0.000000000000    0.000000000000   -93357.122272221633

-50150.240943347337   -0.003429923623    0.000000000000
-0.003429923623   -117731.919876227752    0.000000000000
 0.000000000000    0.000000000000   -93357.086400153916

-50150.257875472729    0.000390296635    0.000000000000
 0.000390296635   -117731.949890459480    0.000000000000
 0.000000000000    0.000000000000   -93357.112008370939

-50150.247357221655   -0.001818752310    0.000000000000
-0.001818752310   -117731.931245592481    0.000000000000
 0.000000000000    0.000000000000   -93357.096048047068

-50150.254731934270   -0.005146139081    0.000000000000
-0.005146139081   -117731.944318156588    0.000000000000
 0.000000000000    0.000000000000   -93357.106951324124

-50150.244704213357   -0.003188430225    0.000000000000
-0.003188430225   -117731.926542815199    0.000000000000
 0.000000000000    0.000000000000   -93357.091962851264

-50150.266372244754   -0.004314869680    0.000000000000
-0.004314869680   -117731.964952007896    0.000000000000
 0.000000000000    0.000000000000   -93357.124337665067

-50150.221096152294    0.000245410424    0.000000000000
 0.000245410424   -117731.884694688953    0.000000000000
 0.000000000000    0.000000000000   -93357.057252443716

-50150.247990001139   -0.003410123563    0.000000000000
-0.003410123563   -117731.932367270143    0.000000000000
 0.000000000000    0.000000000000   -93357.097110416857

-50150.218806129589   -0.000565981468    0.000000000000
-0.000565981468   -117731.880635349386    0.000000000000
 0.000000000000    0.000000000000   -93357.054159154999

-50150.250165184159   -0.001300883216    0.000000000000
-0.001300883216   -117731.936223043682    0.000000000000
 0.000000000000    0.000000000000   -93357.100202832196

-50150.239221394411    0.001543828059    0.000000000000
 0.001543828059   -117731.916823860331    0.000000000000
 0.000000000000    0.000000000000   -93357.084045193391

-50150.254466798331    0.000199992174    0.000000000000
 0.000199992174   -117731.943848172552    0.000000000000
 0.000000000000    0.000000000000   -93357.106608690985

-50150.245297291913    0.001743839931    0.000000000000
 0.001743839931   -117731.927594117704    0.000000000000
 0.000000000000    0.000000000000   -93357.092669152029

-50150.256086790469   -0.000382409547    0.000000000000
-0.000382409547   -117731.946719802960    0.000000000000
 0.000000000000    0.000000000000   -93357.108901116371

-50150.247400474480   -0.000438744687    0.000000000000
-0.000438744687   -117731.931322261284    0.000000000000
 0.000000000000    0.000000000000   -93357.095641415319

-50150.254657886733   -0.001614565220    0.000000000000
-0.001614565220   -117731.944186898472    0.000000000000
 0.000000000000    0.000000000000   -93357.106639728168

-50150.247608805010   -0.001887711353    0.000000000000
-0.001887711353   -117731.931691551988    0.000000000000
 0.000000000000    0.000000000000   -93357.095933766119

-50150.252585623326   -0.002393516418    0.000000000000
-0.002393516418   -117731.940513561494    0.000000000000
 0.000000000000    0.000000000000   -93357.103415933365

-50150.247449093629   -0.002189393078    0.000000000000
-0.002189393078   -117731.931408444681    0.000000000000
 0.000000000000    0.000000000000   -93357.095777266688

-50150.250837639120   -0.002342633874    0.000000000000
-0.002342633874   -117731.937415049048    0.000000000000
 0.000000000000    0.000000000000   -93357.100783652335

-50150.247674980543   -0.002087765723    0.000000000000
-0.002087765723   -117731.931808857073    0.000000000000
 0.000000000000    0.000000000000   -93357.096249375492

-50150.249678143307   -0.002145362308    0.000000000000
-0.002145362308   -117731.935359703581    0.000000000000
 0.000000000000    0.000000000000   -93357.099128779606

-50150.248114568283   -0.002365394459    0.000000000000
-0.002365394459   -117731.932588079639    0.000000000000
 0.000000000000    0.000000000000   -93357.097009239777

-50150.249042956952   -0.002210736651    0.000000000000
-0.002210736651   -117731.934233759777    0.000000000000
 0.000000000000    0.000000000000   -93357.098276557517

-50150.249084175972   -0.002523557013    0.000000000000
-0.002523557013   -117731.934306826064    0.000000000000
 0.000000000000    0.000000000000   -93357.098487729556

-50150.248797650922   -0.002016484096    0.000000000000
-0.002016484096   -117731.933798925660    0.000000000000
 0.000000000000    0.000000000000   -93357.097977682046

-50150.250620838400   -0.002146967016    0.000000000000
-0.002146967016   -117731.937030745146    0.000000000000
 0.000000000000    0.000000000000   -93357.100772874430

-50150.249310761108   -0.001595232148    0.000000000000
-0.001595232148   -117731.934708475426    0.000000000000
 0.000000000000    0.000000000000   -93357.098779708613

-50150.251875267408   -0.001432368544    0.000000000000
-0.001432368544   -117731.939254371551    0.000000000000
 0.000000000000    0.000000000000   -93357.102632403636

-50150.250499111746   -0.001057889596    0.000000000000
-0.001057889596   -117731.936814970046    0.000000000000
 0.000000000000    0.000000000000   -93357.100572413736

-50150.252352326970   -0.000443699330    0.000000000000
-0.000443699330   -117731.940100017062    0.000000000000
 0.000000000000    0.000000000000   -93357.103326768571

-50150.251416916122   -0.000369025180    0.000000000000
-0.000369025180   -117731.938441888866    0.000000000000
 0.000000000000    0.000000000000   -93357.101952097233

-50150.252259690904   -0.000229032438    0.000000000000
-0.000229032438   -117731.939935808376    0.000000000000
 0.000000000000    0.000000000000   -93357.103164315602

-50150.251471142663   -0.000452044231    0.000000000000
-0.000452044231   -117731.938538011833    0.000000000000
 0.000000000000    0.000000000000   -93357.102008478891

-50150.251666082033   -0.000604627578    0.000000000000
-0.000604627578   -117731.938883565104    0.000000000000
 0.000000000000    0.000000000000   -93357.102259876556

-50150.252194503730   -0.000568761091    0.000000000000
-0.000568761091   -117731.939820256230    0.000000000000
 0.000000000000    0.000000000000   -93357.103065667092

-50150.251699848697   -0.000344489304    0.000000000000
-0.000344489304   -117731.938943420420    0.000000000000
 0.000000000000    0.000000000000   -93357.102272416902

-50150.250638071542   -0.000533931573    0.000000000000
-0.000533931573   -117731.937061292760    0.000000000000
 0.000000000000    0.000000000000   -93357.100708891201

-50150.252353428907   -0.000376125533    0.000000000000
-0.000376125533   -117731.940101970089    0.000000000000
 0.000000000000    0.000000000000   -93357.103267726372

-50150.252019958745   -0.000045890013    0.000000000000
-0.000045890013   -117731.939510854601    0.000000000000
 0.000000000000    0.000000000000   -93357.102880046616

-50150.251436793187    0.000402778373    0.000000000000
 0.000402778373   -117731.938477123767    0.000000000000
 0.000000000000    0.000000000000   -93357.102072717913

-50150.255120593960   -0.001969842056    0.000000000000
-0.001969842056   -117731.945007103743    0.000000000000
 0.000000000000    0.000000000000   -93357.107562365272

-50150.245973658391   -0.003163921532    0.000000000000
-0.003163921532   -117731.928793059284    0.000000000000
 0.000000000000    0.000000000000   -93357.093883463429

-50150.247770976945   -0.002038122660    0.000000000000
-0.002038122660   -117731.931979022687    0.000000000000
 0.000000000000    0.000000000000   -93357.096490391152

-50150.249463895700   -0.001976024983    0.000000000000
-0.001976024983   -117731.934979924685    0.000000000000
 0.000000000000    0.000000000000   -93357.098969244573

-50150.251619604081   -0.000581516788    0.000000000000
-0.000581516788   -117731.938801177268    0.000000000000
 0.000000000000    0.000000000000   -93357.102173149455

-50150.248977296738    0.000046325510    0.000000000000
 0.000046325510   -117731.934117369528    0.000000000000
 0.000000000000    0.000000000000   -93357.098221497028

-50150.249941052396   -0.001711425321    0.000000000000
-0.001711425321   -117731.935825742141    0.000000000000
 0.000000000000    0.000000000000   -93357.099636536848

-50150.253891187429   -0.000883395580    0.000000000000
-0.000883395580   -117731.942827831619    0.000000000000
 0.000000000000    0.000000000000   -93357.105468653608

-50150.252758466355   -0.000317859255    0.000000000000
-0.000317859255   -117731.940819946802    0.000000000000
 0.000000000000    0.000000000000   -93357.103681919776

-50150.253709923367   -0.002634223262    0.000000000000
-0.002634223262   -117731.942506518302    0.000000000000
 0.000000000000    0.000000000000   -93357.105045598961

-50150.256833767286   -0.002586804001    0.000000000000
-0.002586804001   -117731.948043907731    0.000000000000
 0.000000000000    0.000000000000   -93357.109745558642

-50150.254771176609   -0.002393307606    0.000000000000
-0.002393307606   -117731.944387718191    0.000000000000
 0.000000000000    0.000000000000   -93357.106785992160

-50150.253855502509   -0.004103255075    0.000000000000
-0.004103255075   -117731.942764575782    0.000000000000
 0.000000000000    0.000000000000   -93357.105550823064

-50150.253935200257   -0.001992260056    0.000000000000
-0.001992260056   -117731.942905850345    0.000000000000
 0.000000000000    0.000000000000   -93357.105728898139

-50150.249237861193    0.001608792831    0.000000000000
 0.001608792831   -117731.934579251480    0.000000000000
 0.000000000000    0.000000000000   -93357.098666864273

-50150.249413245787    0.000034900616    0.000000000000
 0.000034900616   -117731.934890140736    0.000000000000
 0.000000000000    0.000000000000   -93357.098672537293

-50150.241170975904   -0.000780845269    0.000000000000
-0.000780845269   -117731.920279725862    0.000000000000
 0.000000000000    0.000000000000   -93357.086579339273

-50150.260631654557   -0.001839628518    0.000000000000
-0.001839628518   -117731.954776119586    0.000000000000
 0.000000000000    0.000000000000   -93357.115310595924

-50150.255484502792    0.002617382439    0.000000000000
 0.002617382439   -117731.945652176742    0.000000000000
 0.000000000000    0.000000000000   -93357.108400144381

-50150.233962187551   -0.000017904949    0.000000000000
-0.000017904949   -117731.907501281574    0.000000000000
 0.000000000000    0.000000000000   -93357.075912339293

-50150.221828616835   -0.002077709650    0.000000000000
-0.002077709650   -117731.885993069634    0.000000000000
 0.000000000000    0.000000000000   -93357.058263937623

-50150.265160742492    0.002647671934    0.000000000000
 0.002647671934   -117731.962804473340    0.000000000000
 0.000000000000    0.000000000000   -93357.122213446943

-50150.261123618984    0.004940028973    0.000000000000
 0.004940028973   -117731.955648185191    0.000000000000
 0.000000000000    0.000000000000   -93357.116112837888

-50150.260226454207    0.003341381741    0.000000000000
 0.003341381741   -117731.954057852592    0.000000000000
 0.000000000000    0.000000000000   -93357.114719196135

-50150.254447205029   -0.000080820248    0.000000000000
-0.000080820248   -117731.943813439211    0.000000000000
 0.000000000000    0.000000000000   -93357.106194548280

-50150.251620212235   -0.002445756745    0.000000000000
-0.002445756745   -117731.938802255143    0.000000000000
 0.000000000000    0.000000000000   -93357.102192831313

-50150.250289183161   -0.003231490321    0.000000000000
-0.003231490321   -117731.936442846403    0.000000000000
 0.000000000000    0.000000000000   -93357.100340421617

-50150.248568988638   -0.003037357923    0.000000000000
-0.003037357923   -117731.933393594634    0.000000000000
 0.000000000000    0.000000000000   -93357.097774143462

-50150.246589748618   -0.002640288768    0.000000000000
-0.002640288768   -117731.929885153513    0.000000000000
 0.000000000000    0.000000000000   -93357.094793910102

-50150.244916326497   -0.002303951042    0.000000000000
-0.002303951042   -117731.926918811514    0.000000000000
 0.000000000000    0.000000000000   -93357.092295468756

-50150.244108166720   -0.001787762551    0.000000000000
-0.001787762551   -117731.925486251173    0.000000000000
 0.000000000000    0.000000000000   -93357.091093794297

-50150.244463332871   -0.000997584517    0.000000000000
-0.000997584517   -117731.926115825889    0.000000000000
 0.000000000000    0.000000000000   -93357.091600712869

-50150.245858403898   -0.000297193346    0.000000000000
-0.000297193346   -117731.928588756942    0.000000000000
 0.000000000000    0.000000000000   -93357.093628360919

-50150.247204552412   -0.000159351148    0.000000000000
-0.000159351148   -117731.930974966876    0.000000000000
 0.000000000000    0.000000000000   -93357.095573158265

-50150.247840909324   -0.000375667433    0.000000000000
-0.000375667433   -117731.932102985797    0.000000000000
 0.000000000000    0.000000000000   -93357.096464644303

-50150.248858788662   -0.000448389516    0.000000000000
-0.000448389516   -117731.933907299361    0.000000000000
 0.000000000000    0.000000000000   -93357.097974187374

-50150.248352496987   -0.000688316924    0.000000000000
-0.000688316924   -117731.933009836488    0.000000000000
 0.000000000000    0.000000000000   -93357.097228337137

-50150.249365932003   -0.000581963153    0.000000000000
-0.000581963153   -117731.934806271893    0.000000000000
 0.000000000000    0.000000000000   -93357.098718412235

-50150.250096341704   -0.000545144851    0.000000000000
-0.000545144851   -117731.936101011379    0.000000000000
 0.000000000000    0.000000000000   -93357.099890927842

-50150.249605760138   -0.000355546826    0.000000000000
-0.000355546826   -117731.935231396812    0.000000000000
 0.000000000000    0.000000000000   -93357.099221118886

-50150.249983290472   -0.000140996050    0.000000000000
-0.000140996050   -117731.935900615164    0.000000000000
 0.000000000000    0.000000000000   -93357.099871897983

-50150.249503031511    0.000264934060    0.000000000000
 0.000264934060   -117731.935049298481    0.000000000000
 0.000000000000    0.000000000000   -93357.099183544575

-50150.248473428757    0.000035501842    0.000000000000
 0.000035501842   -117731.933224204084    0.000000000000
 0.000000000000    0.000000000000   -93357.097725460859

-50150.249617000176   -0.000234139317    0.000000000000
-0.000234139317   -117731.935251321906    0.000000000000
 0.000000000000    0.000000000000   -93357.099408145790

-50150.247743757514    0.001403277721    0.000000000000
 0.001403277721   -117731.931930774037    0.000000000000
 0.000000000000    0.000000000000   -93357.096657398477

-50150.250971461319    0.000143604452    0.000000000000
 0.000143604452   -117731.937652267283    0.000000000000
 0.000000000000    0.000000000000   -93357.101426665002

-50150.241834284476   -0.003083099425    0.000000000000
-0.003083099425   -117731.921455521311    0.000000000000
 0.000000000000    0.000000000000   -93357.087775392865

-50150.244381177938   -0.002209564597    0.000000000000
-0.002209564597   -117731.925970196549    0.000000000000
 0.000000000000    0.000000000000   -93357.091560268716

-50150.247174305390   -0.000192395768    0.000000000000
-0.000192395768   -117731.930921351304    0.000000000000
 0.000000000000    0.000000000000   -93357.095728113141

-50150.248937912642   -0.003035888752    0.000000000000
-0.003035888752   -117731.934047556613    0.000000000000
 0.000000000000    0.000000000000   -93357.098274780903

-50150.243002696705   -0.003278008794    0.000000000000
-0.003278008794   -117731.923526672457    0.000000000000
 0.000000000000    0.000000000000   -93357.089499710070

-50150.251923287629   -0.005681346460    0.000000000000
-0.005681346460   -117731.939339491510    0.000000000000
 0.000000000000    0.000000000000   -93357.102648980057

-50150.243096422433   -0.003906306360    0.000000000000
-0.003906306360   -117731.923692811950    0.000000000000
 0.000000000000    0.000000000000   -93357.089566065843

-50150.248989621505    0.002858732618    0.000000000000
 0.002858732618   -117731.934139216173    0.000000000000
 0.000000000000    0.000000000000   -93357.098258964717

-50150.249011976164    0.004622258598    0.000000000000
 0.004622258598   -117731.934178841766    0.000000000000
 0.000000000000    0.000000000000   -93357.098276389908

-50150.250867064824    0.000246624606    0.000000000000
 0.000246624606   -117731.937467210970    0.000000000000
 0.000000000000    0.000000000000   -93357.101065151583

-50150.247660494933   -0.001365443167    0.000000000000
-0.001365443167   -117731.931783179331    0.000000000000
 0.000000000000    0.000000000000   -93357.096160293513

-50150.253516699166   -0.005229809045    0.000000000000
-0.005229809045   -117731.942164005304    0.000000000000
 0.000000000000    0.000000000000   -93357.105030097882

-50150.245268980951   -0.004265520593    0.000000000000
-0.004265520593   -117731.927543931990    0.000000000000
 0.000000000000    0.000000000000   -93357.092556800402

-50150.250298921856    0.002735443080    0.000000000000
 0.002735443080   -117731.936460108758    0.000000000000
 0.000000000000    0.000000000000   -93357.100233696809

-50150.247616054461    0.003648527555    0.000000000000
 0.003648527555   -117731.931704402698    0.000000000000
 0.000000000000    0.000000000000   -93357.096119398775

-50150.252515905231   -0.000083123878    0.000000000000
-0.000083123878   -117731.940389979078    0.000000000000
 0.000000000000    0.000000000000   -93357.103546130777

-50150.243446745997   -0.001972140571    0.000000000000
-0.001972140571   -117731.924313802883    0.000000000000
 0.000000000000    0.000000000000   -93357.090017346927

-50150.254821544426   -0.005746813297    0.000000000000
-0.005746813297   -117731.944477000332    0.000000000000
 0.000000000000    0.000000000000   -93357.106983773934

-50150.239619863642   -0.005432326251    0.000000000000
-0.005432326251   -117731.917530192673    0.000000000000
 0.000000000000    0.000000000000   -93357.084420455489

-50150.250658095334    0.001509496947    0.000000000000
 0.001509496947   -117731.937096787224    0.000000000000
 0.000000000000    0.000000000000   -93357.100771446596

-50150.241684456145    0.001713800012    0.000000000000
 0.001713800012   -117731.921189932531    0.000000000000
 0.000000000000    0.000000000000   -93357.087532043806

-50150.251815597672   -0.001811503241    0.000000000000
-0.001811503241   -117731.939148599631    0.000000000000
 0.000000000000    0.000000000000   -93357.102516349652

-50150.238697135879   -0.003883568461    0.000000000000
-0.003883568461   -117731.915894547099    0.000000000000
 0.000000000000    0.000000000000   -93357.082956124403

-50150.253409345460   -0.007185845831    0.000000000000
-0.007185845831   -117731.941973707042    0.000000000000
 0.000000000000    0.000000000000   -93357.104898052785

-50150.237910660580   -0.006507222891    0.000000000000
-0.006507222891   -117731.914500422718    0.000000000000
 0.000000000000    0.000000000000   -93357.081558495091

-50150.249088770433    0.001034487030    0.000000000000
 0.001034487030   -117731.934314969883    0.000000000000
 0.000000000000    0.000000000000   -93357.098401971147

-50150.244877627425    0.002145400808    0.000000000000
 0.002145400808   -117731.926850210206    0.000000000000
 0.000000000000    0.000000000000   -93357.091781026596

-50150.250827564843   -0.000648295897    0.000000000000
-0.000648295897   -117731.937397191898    0.000000000000
 0.000000000000    0.000000000000   -93357.100886530228

-50150.246746731442   -0.001026071887    0.000000000000
-0.001026071887   -117731.930163422643    0.000000000000
 0.000000000000    0.000000000000   -93357.094581627229

-50150.254520051545   -0.004655072969    0.000000000000
-0.004655072969   -117731.943942567072    0.000000000000
 0.000000000000    0.000000000000   -93357.106225156967

-50150.246913136056   -0.001897443061    0.000000000000
-0.001897443061   -117731.930458394971    0.000000000000
 0.000000000000    0.000000000000   -93357.094915295020

-50150.252759660871    0.003352473115    0.000000000000
 0.003352473115   -117731.940822062170    0.000000000000
 0.000000000000    0.000000000000   -93357.103419195293

-50150.248833313468    0.003602428050    0.000000000000
 0.003602428050   -117731.933862139558    0.000000000000
 0.000000000000    0.000000000000   -93357.097741925565

-50150.256872441008    0.000105978241    0.000000000000
 0.000105978241   -117731.948112460464    0.000000000000
 0.000000000000    0.000000000000   -93357.109509962553

-50150.244715185618   -0.002536130883    0.000000000000
-0.002536130883   -117731.926562262059    0.000000000000
 0.000000000000    0.000000000000   -93357.091510865575

-50150.264359058121   -0.002074724293    0.000000000000
-0.002074724293   -117731.961383389804    0.000000000000
 0.000000000000    0.000000000000   -93357.120664389309

-50150.242463733404   -0.000460765969    0.000000000000
-0.000460765969   -117731.922571291187    0.000000000000
 0.000000000000    0.000000000000   -93357.087811901787

-50150.250009794720   -0.001616436298    0.000000000000
-0.001616436298   -117731.935947599530    0.000000000000
 0.000000000000    0.000000000000   -93357.100458255125

-50150.234834918941   -0.006554324449    0.000000000000
-0.006554324449   -117731.909048299669    0.000000000000
 0.000000000000    0.000000000000   -93357.076829652971

-50150.252837854379    0.000258766767    0.000000000000
 0.000258766767   -117731.940960673135    0.000000000000
 0.000000000000    0.000000000000   -93357.104160366987

-50150.237119631078   -0.001063329210    0.000000000000
-0.001063329210   -117731.913098231831    0.000000000000
 0.000000000000    0.000000000000   -93357.080873287603

-50150.259496322040    0.000221082078    0.000000000000
 0.000221082078   -117731.952763608948    0.000000000000
 0.000000000000    0.000000000000   -93357.114212645189

-50150.246955374474    0.001352313555    0.000000000000
 0.001352313555   -117731.930533269304    0.000000000000
 0.000000000000    0.000000000000   -93357.095307686628

-50150.271148118271   -0.002524390221    0.000000000000
-0.002524390221   -117731.973417819419    0.000000000000
 0.000000000000    0.000000000000   -93357.131599376153

-50150.241910093217    0.004586521084    0.000000000000
 0.004586521084   -117731.921589902937    0.000000000000
 0.000000000000    0.000000000000   -93357.088310187042

-50150.262353328806   -0.001620859183    0.000000000000
-0.001620859183   -117731.957827997438    0.000000000000
 0.000000000000    0.000000000000   -93357.118546396159

-50150.244347220389   -0.006370121230    0.000000000000
-0.006370121230   -117731.925910002043    0.000000000000
 0.000000000000    0.000000000000   -93357.091689463501

-50150.244170395352   -0.003278442536    0.000000000000
-0.003278442536   -117731.925596559915    0.000000000000
 0.000000000000    0.000000000000   -93357.091539575515

-50150.233245370975   -0.003515909890    0.000000000000
-0.003515909890   -117731.906230641034    0.000000000000
 0.000000000000    0.000000000000   -93357.075621474942

-50150.253675149695   -0.000828065870    0.000000000000
-0.000828065870   -117731.942444882035    0.000000000000
 0.000000000000    0.000000000000   -93357.105864958066

-50150.232970986195    0.004625608675    0.000000000000
 0.004625608675   -117731.905744260483    0.000000000000
 0.000000000000    0.000000000000   -93357.075059723022

-50150.251447619870    0.007084372263    0.000000000000
 0.007084372263   -117731.938496313378    0.000000000000
 0.000000000000    0.000000000000   -93357.102113089466

-50150.241020430185    0.006315448711    0.000000000000
 0.006315448711   -117731.920012865754    0.000000000000
 0.000000000000    0.000000000000   -93357.086660548521

-50150.250905513400    0.004340551471    0.000000000000
 0.004340551471   -117731.937535365636    0.000000000000
 0.000000000000    0.000000000000   -93357.101280460221

-50150.245983320172    0.002542321108    0.000000000000
 0.002542321108   -117731.928810184589    0.000000000000
 0.000000000000    0.000000000000   -93357.093555490486

-50150.252520310809   -0.000125344291    0.000000000000
-0.000125344291   -117731.940397789120    0.000000000000
 0.000000000000    0.000000000000   -93357.103688940697

-50150.246783515555   -0.000761136909    0.000000000000
-0.000761136909   -117731.930228626734    0.000000000000
 0.000000000000    0.000000000000   -93357.094594195049

-50150.253358026239   -0.002132543167    0.000000000000
-0.002132543167   -117731.941882740008    0.000000000000
 0.000000000000    0.000000000000   -93357.104862834763

-50150.247159195875   -0.002829563074    0.000000000000
-0.002829563074   -117731.930894565623    0.000000000000
 0.000000000000    0.000000000000   -93357.095291385282

-50150.252922599422   -0.003399528719    0.000000000000
-0.003399528719   -117731.941110893007    0.000000000000
 0.000000000000    0.000000000000   -93357.104154315835

-50150.248146942584   -0.003641626202    0.000000000000
-0.003641626202   -117731.932645466499    0.000000000000
 0.000000000000    0.000000000000   -93357.097020634668

-50150.251749708506   -0.003871150071    0.000000000000
-0.003871150071   -117731.939031802438    0.000000000000
 0.000000000000    0.000000000000   -93357.102375972230

-50150.249008982384   -0.003707244410    0.000000000000
-0.003707244410   -117731.934173536603    0.000000000000
 0.000000000000    0.000000000000   -93357.098488443895

-50150.250554359576   -0.003607802426    0.000000000000
-0.003607802426   -117731.936912902689    0.000000000000
 0.000000000000    0.000000000000   -93357.100586534070

-50150.249531095746   -0.003463348960    0.000000000000
-0.003463348960   -117731.935099045659    0.000000000000
 0.000000000000    0.000000000000   -93357.099315711137

-50150.249679872417   -0.002914553478    0.000000000000
-0.002914553478   -117731.935362769320    0.000000000000
 0.000000000000    0.000000000000   -93357.099313000785

-50150.250263935523   -0.002723587424    0.000000000000
-0.002723587424   -117731.936398092424    0.000000000000
 0.000000000000    0.000000000000   -93357.100385165773

-50150.249350960206   -0.001964631505    0.000000000000
-0.001964631505   -117731.934779733245    0.000000000000
 0.000000000000    0.000000000000   -93357.098865751177

-50150.251201687293   -0.001512963991    0.000000000000
-0.001512963991   -117731.938060370347    0.000000000000
 0.000000000000    0.000000000000   -93357.101753603158

-50150.249562649769   -0.000859288475    0.000000000000
-0.000859288475   -117731.935154978710    0.000000000000
 0.000000000000    0.000000000000   -93357.099207037099

-50150.251852796209   -0.000261371658    0.000000000000
-0.000261371658   -117731.939214539219    0.000000000000
 0.000000000000    0.000000000000   -93357.102698574396

-50150.250265316223    0.000112377516    0.000000000000
 0.000112377516   -117731.936400539562    0.000000000000
 0.000000000000    0.000000000000   -93357.100257279933

-50150.251992889309    0.000424245619    0.000000000000
 0.000424245619   -117731.939462870883    0.000000000000
 0.000000000000    0.000000000000   -93357.102864305401

-50150.251235634045    0.000459581273    0.000000000000
 0.000459581273   -117731.938120544626    0.000000000000
 0.000000000000    0.000000000000   -93357.101693631688

-50150.251799445890    0.000212061472    0.000000000000
 0.000212061472   -117731.939119968796    0.000000000000
 0.000000000000    0.000000000000   -93357.102500876659

-50150.251818715580    0.000155494024    0.000000000000
 0.000155494024   -117731.939154126710    0.000000000000
 0.000000000000    0.000000000000   -93357.102541629021

-50150.252065102162    0.000123620928    0.000000000000
 0.000123620928   -117731.939590876122    0.000000000000
 0.000000000000    0.000000000000   -93357.102815133461

-50150.252248755525   -0.000041442140    0.000000000000
-0.000041442140   -117731.939916424133    0.000000000000
 0.000000000000    0.000000000000   -93357.103153179400

-50150.252075977442   -0.000410100723    0.000000000000
-0.000410100723   -117731.939610153568    0.000000000000
 0.000000000000    0.000000000000   -93357.102766419266

-50150.251963197399   -0.000557272185    0.000000000000
-0.000557272185   -117731.939410237697    0.000000000000
 0.000000000000    0.000000000000   -93357.102668468578

-50150.251620625386   -0.000564489082    0.000000000000
-0.000564489082   -117731.938802987162    0.000000000000
 0.000000000000    0.000000000000   -93357.102070758701

-50150.252053667951   -0.000694675171    0.000000000000
-0.000694675171   -117731.939570607385    0.000000000000
 0.000000000000    0.000000000000   -93357.102751501923

-50150.250780452378   -0.000739208477    0.000000000000
-0.000739208477   -117731.937313679227    0.000000000000
 0.000000000000    0.000000000000   -93357.100780687411

-50150.252889305164   -0.000650256705    0.000000000000
-0.000650256705   -117731.941051874601    0.000000000000
 0.000000000000    0.000000000000   -93357.103932199359

-50150.251635131273   -0.000563667111    0.000000000000
-0.000563667111   -117731.938828700964    0.000000000000
 0.000000000000    0.000000000000   -93357.102167622157

-50150.251699134446   -0.000052039094    0.000000000000
-0.000052039094   -117731.938942154782    0.000000000000
 0.000000000000    0.000000000000   -93357.102366640902

-50150.250515592910   -0.000156878239    0.000000000000
-0.000156878239   -117731.936844185431    0.000000000000
 0.000000000000    0.000000000000   -93357.100696394133

-50150.251959140718    0.000964144773    0.000000000000
 0.000964144773   -117731.939403047640    0.000000000000
 0.000000000000    0.000000000000   -93357.102875420125

-50150.254417107055   -0.000143829339    0.000000000000
-0.000143829339   -117731.943760088936    0.000000000000
 0.000000000000    0.000000000000   -93357.106567377050

-50150.251550925474   -0.003309396298    0.000000000000
-0.003309396298   -117731.938679436105    0.000000000000
 0.000000000000    0.000000000000   -93357.102184662945

-50150.243951416785   -0.000590689773    0.000000000000
-0.000590689773   -117731.925208393484    0.000000000000
 0.000000000000    0.000000000000   -93357.090932798150

-50150.243177809985    0.000735862983    0.000000000000
 0.000735862983   -117731.923837081893    0.000000000000
 0.000000000000    0.000000000000   -93357.089689024229

-50150.247870692838   -0.004233467420    0.000000000000
-0.004233467420   -117731.932155780232    0.000000000000
 0.000000000000    0.000000000000   -93357.096664299199

-50150.255343307188    0.000390395308    0.000000000000
 0.000390395308   -117731.945401889650    0.000000000000
 0.000000000000    0.000000000000   -93357.107852894784

-50150.246797181113    0.003567020659    0.000000000000
 0.003567020659   -117731.930252851860    0.000000000000
 0.000000000000    0.000000000000   -93357.095102153893

-50150.247235080737   -0.004002235770    0.000000000000
-0.004002235770   -117731.931029081432    0.000000000000
 0.000000000000    0.000000000000   -93357.095758266049

-50150.256018314198   -0.000640869313    0.000000000000
-0.000640869313   -117731.946598420705    0.000000000000
 0.000000000000    0.000000000000   -93357.108839926106

-50150.250112487556    0.002670738251    0.000000000000
 0.002670738251   -117731.936129631271    0.000000000000
 0.000000000000    0.000000000000   -93357.099922662863

-50150.251122761503   -0.005014474438    0.000000000000
-0.005014474438   -117731.937920462049    0.000000000000
 0.000000000000    0.000000000000   -93357.101346989948

-50150.259173700753   -0.002173717433    0.000000000000
-0.002173717433   -117731.952191722026    0.000000000000
 0.000000000000    0.000000000000   -93357.113355163645

-50150.252618222192    0.000705166209    0.000000000000
 0.000705166209   -117731.940571347397    0.000000000000
 0.000000000000    0.000000000000   -93357.103609772603

-50150.252767998769   -0.006789451876    0.000000000000
-0.006789451876   -117731.940836842958    0.000000000000
 0.000000000000    0.000000000000   -93357.103921198664

-50150.259161428767   -0.002652301753    0.000000000000
-0.002652301753   -117731.952169969212    0.000000000000
 0.000000000000    0.000000000000   -93357.113528350601

-50150.250920381935    0.002735259437    0.000000000000
 0.002735259437   -117731.937561721075    0.000000000000
 0.000000000000    0.000000000000   -93357.101147973299

-50150.250381108381   -0.003002032442    0.000000000000
-0.003002032442   -117731.936605793046    0.000000000000
 0.000000000000    0.000000000000   -93357.100136961526

-50150.254549833895   -0.001101875047    0.000000000000
-0.001101875047   -117731.943995360256    0.000000000000
 0.000000000000    0.000000000000   -93357.106151734304

-50150.243447759967    0.002155228156    0.000000000000
 0.002155228156   -117731.924315596756    0.000000000000
 0.000000000000    0.000000000000   -93357.089449407096

-50150.243076013547    0.000329969442    0.000000000000
 0.000329969442   -117731.923656632105    0.000000000000
 0.000000000000    0.000000000000   -93357.088857553390

-50150.245452440751    0.004208776077    0.000000000000
 0.004208776077   -117731.927869137493    0.000000000000
 0.000000000000    0.000000000000   -93357.092981047521

-50150.267912191972    0.002022393023    0.000000000000
 0.002022393023   -117731.967681748298    0.000000000000
 0.000000000000    0.000000000000   -93357.126244556246

-50150.267642513158   -0.007210424488    0.000000000000
-0.007210424488   -117731.967203703389    0.000000000000
 0.000000000000    0.000000000000   -93357.124809355548

-50150.268262167432    0.001913849388    0.000000000000
 0.001913849388   -117731.968302125286    0.000000000000
 0.000000000000    0.000000000000   -93357.127529706806

-50150.240719414011    0.003387152224    0.000000000000
 0.003387152224   -117731.919479276272    0.000000000000
 0.000000000000    0.000000000000   -93357.085980314703

-50150.214532335252    0.001133146920    0.000000000000
 0.001133146920   -117731.873059531936    0.000000000000
 0.000000000000    0.000000000000   -93357.047145832868

-50150.238137979628   -0.004096366147    0.000000000000
-0.004096366147   -117731.914903374374    0.000000000000
 0.000000000000    0.000000000000   -93357.082184272615

-50150.242440007736   -0.007836253094    0.000000000000
-0.007836253094   -117731.922529237519    0.000000000000
 0.000000000000    0.000000000000   -93357.088989131531

-50150.258733114511   -0.005281038718    0.000000000000
-0.005281038718   -117731.951410726004    0.000000000000
 0.000000000000    0.000000000000   -93357.112170368317

-50150.256907123417    0.003346585556    0.000000000000
 0.003346585556   -117731.948173939250    0.000000000000
 0.000000000000    0.000000000000   -93357.109682499547

-50150.257215533609    0.006684818591    0.000000000000
 0.006684818591   -117731.948720632325    0.000000000000
 0.000000000000    0.000000000000   -93357.110223196505

-50150.253462023393    0.006538260838    0.000000000000
 0.006538260838   -117731.942067086260    0.000000000000
 0.000000000000    0.000000000000   -93357.105104159098

-50150.252409269364    0.001758059937    0.000000000000
 0.001758059937   -117731.940200955432    0.000000000000
 0.000000000000    0.000000000000   -93357.103682926594

-50150.250613098004   -0.002473811373    0.000000000000
-0.002473811373   -117731.937017024175    0.000000000000
 0.000000000000    0.000000000000   -93357.100734950058

-50150.248437226328   -0.003991477396    0.000000000000
-0.003991477396   -117731.933160028770    0.000000000000
 0.000000000000    0.000000000000   -93357.097350824741

-50150.246975465358   -0.004178738992    0.000000000000
-0.004178738992   -117731.930568882119    0.000000000000
 0.000000000000    0.000000000000   -93357.095307306125

-50150.245608836020   -0.003905452926    0.000000000000
-0.003905452926   -117731.928146368125    0.000000000000
 0.000000000000    0.000000000000   -93357.093449825683

-50150.244598501071   -0.003100801655    0.000000000000
-0.003100801655   -117731.926355428441    0.000000000000
 0.000000000000    0.000000000000   -93357.092021770382

-50150.244480475485   -0.001829270785    0.000000000000
-0.001829270785   -117731.926146214115    0.000000000000
 0.000000000000    0.000000000000   -93357.091835680621

-50150.245244024831   -0.000498580781    0.000000000000
-0.000498580781   -117731.927499697034    0.000000000000
 0.000000000000    0.000000000000   -93357.092911130312

-50150.246427265098    0.000450851758    0.000000000000
 0.000450851758   -117731.929597132403    0.000000000000
 0.000000000000    0.000000000000   -93357.094591094952

-50150.247231785557    0.000724970403    0.000000000000
 0.000724970403   -117731.931023241312    0.000000000000
 0.000000000000    0.000000000000   -93357.095708234236

-50150.247591263047    0.000550299675    0.000000000000
 0.000550299675   -117731.931660458096    0.000000000000
 0.000000000000    0.000000000000   -93357.096168550954

-50150.247794591203    0.000012888099    0.000000000000
 0.000012888099   -117731.932020881402    0.000000000000
 0.000000000000    0.000000000000   -93357.096403390431

-50150.247810866065   -0.000563982107    0.000000000000
-0.000563982107   -117731.932049730240    0.000000000000
 0.000000000000    0.000000000000   -93357.096361009360

-50150.248498797679   -0.000898907465    0.000000000000
-0.000898907465   -117731.933269171612    0.000000000000
 0.000000000000    0.000000000000   -93357.097351290329

-50150.248026190849   -0.000894568059    0.000000000000
-0.000894568059   -117731.932431419089    0.000000000000
 0.000000000000    0.000000000000   -93357.096634137037

-50150.249660644855   -0.000701060188    0.000000000000
-0.000701060188   -117731.935328685562    0.000000000000
 0.000000000000    0.000000000000   -93357.099091173935

-50150.248979094576   -0.000536197275    0.000000000000
-0.000536197275   -117731.934120555845    0.000000000000
 0.000000000000    0.000000000000   -93357.098104796372

-50150.250142430057   -0.000384003129    0.000000000000
-0.000384003129   -117731.936182708305    0.000000000000
 0.000000000000    0.000000000000   -93357.099910867983

-50150.249437294849   -0.000425501168    0.000000000000
-0.000425501168   -117731.934932771575    0.000000000000
 0.000000000000    0.000000000000   -93357.098919385680

-50150.249909194376   -0.000542216773    0.000000000000
-0.000542216773   -117731.935769270611    0.000000000000
 0.000000000000    0.000000000000   -93357.099700248305

-50150.249475801756    0.000070477290    0.000000000000
 0.000070477290   -117731.935001030331    0.000000000000
 0.000000000000    0.000000000000   -93357.099108382492

-50150.249487598179    0.000649371510    0.000000000000
 0.000649371510   -117731.935021941259    0.000000000000
 0.000000000000    0.000000000000   -93357.099206562183

-50150.249990538461    0.000189454567    0.000000000000
 0.000189454567   -117731.935913463531    0.000000000000
 0.000000000000    0.000000000000   -93357.099977493868

-50150.248442528529   -0.000989329120    0.000000000000
-0.000989329120   -117731.933169429933    0.000000000000
 0.000000000000    0.000000000000   -93357.097739051111

-50150.249873617846   -0.000253796721    0.000000000000
-0.000253796721   -117731.935706207849    0.000000000000
 0.000000000000    0.000000000000   -93357.099841548246

-50150.244437270427    0.002925462994    0.000000000000
 0.002925462994   -117731.926069627705    0.000000000000
 0.000000000000    0.000000000000   -93357.091769895371

-50150.250707210107    0.003179570958    0.000000000000
 0.003179570958   -117731.937183850067    0.000000000000
 0.000000000000    0.000000000000   -93357.101094850543

-50150.243146284956   -0.003875608429    0.000000000000
-0.003875608429   -117731.923781200050    0.000000000000
 0.000000000000    0.000000000000   -93357.089771910323

-50150.240900157703   -0.009504143642    0.000000000000
-0.009504143642   -117731.919799666168    0.000000000000
 0.000000000000    0.000000000000   -93357.086435149962

-50150.251344360258    0.003740638227    0.000000000000
 0.003740638227   -117731.938313274411    0.000000000000
 0.000000000000    0.000000000000   -93357.101881987604

-50150.255905249040   -0.006414024080    0.000000000000
-0.006414024080   -117731.946397996348    0.000000000000
 0.000000000000    0.000000000000   -93357.108700626122

-50150.253858392498   -0.003461088499    0.000000000000
-0.003461088499   -117731.942769698944    0.000000000000
 0.000000000000    0.000000000000   -93357.105599303643

-50150.249403856462   -0.005663280028    0.000000000000
-0.005663280028   -117731.934873496706    0.000000000000
 0.000000000000    0.000000000000   -93357.098940798634

-50150.241072807519   -0.007735640342    0.000000000000
-0.007735640342   -117731.920105708385    0.000000000000
 0.000000000000    0.000000000000   -93357.086563088436

-50150.248763883101    0.006541314614    0.000000000000
 0.006541314614   -117731.933739065076    0.000000000000
 0.000000000000    0.000000000000   -93357.097938022809

-50150.243327666234    0.005278439550    0.000000000000
 0.005278439550   -117731.924102718564    0.000000000000
 0.000000000000    0.000000000000   -93357.089892952237

-50150.256601637942   -0.002175462556    0.000000000000
-0.002175462556   -117731.947632431446    0.000000000000
 0.000000000000    0.000000000000   -93357.109657542926

-50150.254488790466    0.002822131758    0.000000000000
 0.002822131758   -117731.943887154543    0.000000000000
 0.000000000000    0.000000000000   -93357.106468594677

-50150.247039428010   -0.004449445805    0.000000000000
-0.004449445805   -117731.930682263424    0.000000000000
 0.000000000000    0.000000000000   -93357.095410250826

-50150.244775700543   -0.006823347549    0.000000000000
-0.006823347549   -117731.926669531356    0.000000000000
 0.000000000000    0.000000000000   -93357.091906716290

-50150.247510564339    0.006141361814    0.000000000000
 0.006141361814   -117731.931517407575    0.000000000000
 0.000000000000    0.000000000000   -93357.096145136864

-50150.243279942697    0.003699507113    0.000000000000
 0.003699507113   -117731.924018123085    0.000000000000
 0.000000000000    0.000000000000   -93357.089703109494

-50150.257566587039   -0.003129778943    0.000000000000
-0.003129778943   -117731.949342920067    0.000000000000
 0.000000000000    0.000000000000   -93357.111197037768

-50150.251202805244    0.001754842676    0.000000000000
 0.001754842676   -117731.938062351008    0.000000000000
 0.000000000000    0.000000000000   -93357.101631459955

-50150.248132557761   -0.005082882189    0.000000000000
-0.005082882189   -117731.932619967527    0.000000000000
 0.000000000000    0.000000000000   -93357.097116451565

-50150.239690321279   -0.007876494987    0.000000000000
-0.007876494987   -117731.917655085053    0.000000000000
 0.000000000000    0.000000000000   -93357.084545536505

-50150.248604302353    0.005099292967    0.000000000000
 0.005099292967   -117731.933456190338    0.000000000000
 0.000000000000    0.000000000000   -93357.097803055236

-50150.237741977195    0.002120464383    0.000000000000
 0.002120464383   -117731.914201414358    0.000000000000
 0.000000000000    0.000000000000   -93357.081693177926

-50150.258493142108   -0.004526021694    0.000000000000
-0.004526021694   -117731.950985349860    0.000000000000
 0.000000000000    0.000000000000   -93357.112552764447

-50150.246450778403    0.000033319837    0.000000000000
 0.000033319837   -117731.929638812071    0.000000000000
 0.000000000000    0.000000000000   -93357.094635072339

-50150.249074752079   -0.006497144124    0.000000000000
-0.006497144124   -117731.934290119403    0.000000000000
 0.000000000000    0.000000000000   -93357.098470041790

-50150.237050912154   -0.009185691556    0.000000000000
-0.009185691556   -117731.912976413238    0.000000000000
 0.000000000000    0.000000000000   -93357.080417541292

-50150.249555973402    0.004216006655    0.000000000000
 0.004216006655   -117731.935143142007    0.000000000000
 0.000000000000    0.000000000000   -93357.099181997750

-50150.238842265011    0.001794773578    0.000000000000
 0.001794773578   -117731.916151804879    0.000000000000
 0.000000000000    0.000000000000   -93357.082910657395

-50150.259075539434   -0.004276643195    0.000000000000
-0.004276643195   -117731.952017719188    0.000000000000
 0.000000000000    0.000000000000   -93357.113396144356

-50150.252140700788    0.001398479207    0.000000000000
 0.001398479207   -117731.939724882046    0.000000000000
 0.000000000000    0.000000000000   -93357.102700359508

-50150.249082267517   -0.004912850380    0.000000000000
-0.004912850380   -117731.934303441856    0.000000000000
 0.000000000000    0.000000000000   -93357.098409076818

-50150.245758637247   -0.006112041036    0.000000000000
-0.006112041036   -117731.928411904562    0.000000000000
 0.000000000000    0.000000000000   -93357.093204096804

-50150.249143046123    0.006731728459    0.000000000000
 0.006731728459   -117731.934411176539    0.000000000000
 0.000000000000    0.000000000000   -93357.098322649821

-50150.247424550362    0.004197038356    0.000000000000
 0.004197038356   -117731.931364937875    0.000000000000
 0.000000000000    0.000000000000   -93357.095697732992

-50150.258897573905   -0.001841032827    0.000000000000
-0.001841032827   -117731.951702252089    0.000000000000
 0.000000000000    0.000000000000   -93357.112618262152

-50150.258409793794    0.001295887664    0.000000000000
 0.001295887664   -117731.950837603101    0.000000000000
 0.000000000000    0.000000000000   -93357.111999641056

-50150.251872461362   -0.004046433641    0.000000000000
-0.004046433641   -117731.939249393501    0.000000000000
 0.000000000000    0.000000000000   -93357.101910873578

-50150.249913219588   -0.005095343399    0.000000000000
-0.005095343399   -117731.935776401166    0.000000000000
 0.000000000000    0.000000000000   -93357.099133809403

-50150.259531478572    0.004738408214    0.000000000000
 0.004738408214   -117731.952825922344    0.000000000000
 0.000000000000    0.000000000000   -93357.113414759544

-50150.244463521405    0.004470640766    0.000000000000
 0.004470640766   -117731.926116156508    0.000000000000
 0.000000000000    0.000000000000   -93357.091038327460

-50150.268820291654   -0.002533032846    0.000000000000
-0.002533032846   -117731.969291466521    0.000000000000
 0.000000000000    0.000000000000   -93357.128115746789

-50150.251596282069    0.004598978365    0.000000000000
 0.004598978365   -117731.938759833429    0.000000000000
 0.000000000000    0.000000000000   -93357.101720188803

-50150.247699718384   -0.005815251567    0.000000000000
-0.005815251567   -117731.931852711132    0.000000000000
 0.000000000000    0.000000000000   -93357.097332677702

-50150.249046507059    0.000488691897    0.000000000000
 0.000488691897   -117731.934240052709    0.000000000000
 0.000000000000    0.000000000000   -93357.098235251280

-50150.252374002623    0.001797661728    0.000000000000
 0.001797661728   -117731.940138446909    0.000000000000
 0.000000000000    0.000000000000   -93357.104957992706

-50150.242191812977   -0.000435713050    0.000000000000
-0.000435713050   -117731.922089280240    0.000000000000
 0.000000000000    0.000000000000   -93357.087498691806

-50150.247535896277    0.002420819826    0.000000000000
 0.002420819826   -117731.931562314305    0.000000000000
 0.000000000000    0.000000000000   -93357.096591220179

-50150.227377960677   -0.005506695961    0.000000000000
-0.005506695961   -117731.895829943795    0.000000000000
 0.000000000000    0.000000000000   -93357.065723085878

-50150.259250112518   -0.000183357352    0.000000000000
-0.000183357352   -117731.952327172388    0.000000000000
 0.000000000000    0.000000000000   -93357.113715253421

-50150.234977959255   -0.001286186707    0.000000000000
-0.001286186707   -117731.909301859283    0.000000000000
 0.000000000000    0.000000000000   -93357.077363817545

-50150.273517646907    0.001037398916    0.000000000000
 0.001037398916   -117731.977618094737    0.000000000000
 0.000000000000    0.000000000000   -93357.135278851871

-50150.245159184415    0.010482927329    0.000000000000
 0.010482927329   -117731.927349302947    0.000000000000
 0.000000000000    0.000000000000   -93357.093065880472

-50150.267207248049   -0.000463909839    0.000000000000
-0.000463909839   -117731.966432153713    0.000000000000
 0.000000000000    0.000000000000   -93357.125902356012

-50150.247535134215   -0.002584513215    0.000000000000
-0.002584513215   -117731.931560965750    0.000000000000
 0.000000000000    0.000000000000   -93357.096744116978

-50150.248612954019    0.001371441319    0.000000000000
 0.001371441319   -117731.933471527824    0.000000000000
 0.000000000000    0.000000000000   -93357.097694803073

-50150.247709008006   -0.008281465153    0.000000000000
-0.008281465153   -117731.931869171283    0.000000000000
 0.000000000000    0.000000000000   -93357.096114196989

-50150.238165884904   -0.002755727421    0.000000000000
-0.002755727421   -117731.914952844090    0.000000000000
 0.000000000000    0.000000000000   -93357.082883422554

-50150.242131952808   -0.000541941861    0.000000000000
-0.000541941861   -117731.921983176013    0.000000000000
 0.000000000000    0.000000000000   -93357.088518446195

-50150.240688071179    0.004200506808    0.000000000000
 0.004200506808   -117731.919423721891    0.000000000000
 0.000000000000    0.000000000000   -93357.086483576917

-50150.242731540304    0.000088580388    0.000000000000
 0.000088580388   -117731.923046016280    0.000000000000
 0.000000000000    0.000000000000   -93357.089249305456

-50150.253747455172    0.002910455965    0.000000000000
 0.002910455965   -117731.942573049542    0.000000000000
 0.000000000000    0.000000000000   -93357.105455442128

-50150.238751281999    0.003407511568    0.000000000000
 0.003407511568   -117731.915990526933    0.000000000000
 0.000000000000    0.000000000000   -93357.083089345906

-50150.256015325998    0.005166322991    0.000000000000
 0.005166322991   -117731.946593123517    0.000000000000
 0.000000000000    0.000000000000   -93357.109015794689

-50150.243327125645    0.006454901562    0.000000000000
 0.006454901562   -117731.924101759447    0.000000000000
 0.000000000000    0.000000000000   -93357.089748902858

-50150.252334090837    0.004954448050    0.000000000000
 0.004954448050   -117731.940067690972    0.000000000000
 0.000000000000    0.000000000000   -93357.103440468200

-50150.244395922695    0.003912299235    0.000000000000
 0.003912299235   -117731.925996331294    0.000000000000
 0.000000000000    0.000000000000   -93357.091207259800

-50150.248617936020    0.002793534312    0.000000000000
 0.002793534312   -117731.933480359963    0.000000000000
 0.000000000000    0.000000000000   -93357.097873800827

-50150.244785355913    0.000021822319    0.000000000000
 0.000021822319   -117731.926686649313    0.000000000000
 0.000000000000    0.000000000000   -93357.091815385225

-50150.248974007307   -0.001067306005    0.000000000000
-0.001067306005   -117731.934111539507    0.000000000000
 0.000000000000    0.000000000000   -93357.098421945644

-50150.246057267053   -0.002097561077    0.000000000000
-0.002097561077   -117731.928941265302    0.000000000000
 0.000000000000    0.000000000000   -93357.093852445585

-50150.250492912091   -0.003076686653    0.000000000000
-0.003076686653   -117731.936803980861    0.000000000000
 0.000000000000    0.000000000000   -93357.100731094630

-50150.248076953445   -0.003335947455    0.000000000000
-0.003335947455   -117731.932521403214    0.000000000000
 0.000000000000    0.000000000000   -93357.097088050388

-50150.251293993555   -0.003980214644    0.000000000000
-0.003980214644   -117731.938223994148    0.000000000000
 0.000000000000    0.000000000000   -93357.101978305145

-50150.249672835358   -0.004372147288    0.000000000000
-0.004372147288   -117731.935350296393    0.000000000000
 0.000000000000    0.000000000000   -93357.099636433384

-50150.251287478750   -0.004349015076    0.000000000000
-0.004349015076   -117731.938212445733    0.000000000000
 0.000000000000    0.000000000000   -93357.101967497292

-50150.250625646651   -0.004378980666    0.000000000000
-0.004378980666   -117731.937039269193    0.000000000000
 0.000000000000    0.000000000000   -93357.101093945268

-50150.250918886872   -0.003726429922    0.000000000000
-0.003726429922   -117731.937559072161    0.000000000000
 0.000000000000    0.000000000000   -93357.101351724617

-50150.251318880910   -0.003137533001    0.000000000000
-0.003137533001   -117731.938268110564    0.000000000000
 0.000000000000    0.000000000000   -93357.102087865002

-50150.250606527137   -0.002282886636    0.000000000000
-0.002282886636   -117731.937005376996    0.000000000000
 0.000000000000    0.000000000000   -93357.100818061328

-50150.251870257445   -0.001381625744    0.000000000000
-0.001381625744   -117731.939245491900    0.000000000000
 0.000000000000    0.000000000000   -93357.102862262094

-50150.250583142450   -0.000705060209    0.000000000000
-0.000705060209   -117731.936963924905    0.000000000000
 0.000000000000    0.000000000000   -93357.100751744481

-50150.252113460912    0.000119088067    0.000000000000
 0.000119088067   -117731.939676599184    0.000000000000
 0.000000000000    0.000000000000   -93357.103178449193

-50150.250854185309    0.000485195378    0.000000000000
 0.000485195378   -117731.937444380921    0.000000000000
 0.000000000000    0.000000000000   -93357.101144687127

-50150.251997786050    0.000857073378    0.000000000000
 0.000857073378   -117731.939471551217    0.000000000000
 0.000000000000    0.000000000000   -93357.102935043134

-50150.251186368019    0.000962528982    0.000000000000
 0.000962528982   -117731.938033214654    0.000000000000
 0.000000000000    0.000000000000   -93357.101623282899

-50150.251856461357    0.000907017051    0.000000000000
 0.000907017051   -117731.939221035689    0.000000000000
 0.000000000000    0.000000000000   -93357.102618787496

-50150.251534685187    0.000793925783    0.000000000000
 0.000793925783   -117731.938650648604    0.000000000000
 0.000000000000    0.000000000000   -93357.102111201588

-50150.251937495603    0.000683846862    0.000000000000
 0.000683846862   -117731.939364678125    0.000000000000
 0.000000000000    0.000000000000   -93357.102622714709

-50150.251853017529    0.000355949324    0.000000000000
 0.000355949324   -117731.939214930797    0.000000000000
 0.000000000000    0.000000000000   -93357.102543472880

-50150.251822242644    0.000014318928    0.000000000000
 0.000014318928   -117731.939160377951    0.000000000000
 0.000000000000    0.000000000000   -93357.102349689492

-50150.251999967440   -0.000310111636    0.000000000000
-0.000310111636   -117731.939475416963    0.000000000000
 0.000000000000    0.000000000000   -93357.102709836690

-50150.251732227363   -0.000415155982    0.000000000000
-0.000415155982   -117731.939000814746    0.000000000000
 0.000000000000    0.000000000000   -93357.102155369270

-50150.252254228639   -0.000730529327    0.000000000000
-0.000730529327   -117731.939926125211    0.000000000000
 0.000000000000    0.000000000000   -93357.103024857031

-50150.251327721649   -0.000785836702    0.000000000000
-0.000785836702   -117731.938283779542    0.000000000000
 0.000000000000    0.000000000000   -93357.101522720914

-50150.252558941160   -0.000825928587    0.000000000000
-0.000825928587   -117731.940466264496    0.000000000000
 0.000000000000    0.000000000000   -93357.103409167292

-50150.251573641086   -0.000912243434    0.000000000000
-0.000912243434   -117731.938719701226    0.000000000000
 0.000000000000    0.000000000000   -93357.101868441896

-50150.250671406684   -0.000899704013    0.000000000000
-0.000899704013   -117731.937120382267    0.000000000000
 0.000000000000    0.000000000000   -93357.100544723216

-50150.252405960135   -0.000683397463    0.000000000000
-0.000683397463   -117731.940195086980    0.000000000000
 0.000000000000    0.000000000000   -93357.103124036512

-50150.251782311927   -0.000497222456    0.000000000000
-0.000497222456   -117731.939089596126    0.000000000000
 0.000000000000    0.000000000000   -93357.102326928347

-50150.251356400142   -0.000223049405    0.000000000000
-0.000223049405   -117731.938334616803    0.000000000000
 0.000000000000    0.000000000000   -93357.101816455426

-50150.250283490983    0.000079485634    0.000000000000
 0.000079485634   -117731.936432756687    0.000000000000
 0.000000000000    0.000000000000   -93357.100322162223

-50150.251227179244   -0.000378791118    0.000000000000
-0.000378791118   -117731.938105557987    0.000000000000
 0.000000000000    0.000000000000   -93357.101796324772

-50150.249468725713    0.001461006278    0.000000000000
 0.001461006278   -117731.934988487250    0.000000000000
 0.000000000000    0.000000000000   -93357.099155889708

-50150.263080188037   -0.001249178113    0.000000000000
-0.001249178113   -117731.959116442187    0.000000000000
 0.000000000000    0.000000000000   -93357.119461107155

-50150.251098628112    0.002230485870    0.000000000000
 0.002230485870   -117731.937877684788    0.000000000000
 0.000000000000    0.000000000000   -93357.101469522284

-50150.231545246279   -0.003950804787    0.000000000000
-0.003950804787   -117731.903216961247    0.000000000000
 0.000000000000    0.000000000000   -93357.072303044377

-50150.241063401161   -0.001978630769    0.000000000000
-0.001978630769   -117731.920089033374    0.000000000000
 0.000000000000    0.000000000000   -93357.086484205342

-50150.255641655865    0.000594258610    0.000000000000
 0.000594258610   -117731.945930748683    0.000000000000
 0.000000000000    0.000000000000   -93357.108317148406

-50150.245348873468    0.001459241306    0.000000000000
 0.001459241306   -117731.927685550967    0.000000000000
 0.000000000000    0.000000000000   -93357.092988720338

-50150.244705890458    0.000015509559    0.000000000000
 0.000015509559   -117731.926545786526    0.000000000000
 0.000000000000    0.000000000000   -93357.092083958007

-50150.255714174229   -0.000153253785    0.000000000000
-0.000153253785   -117731.946059296795    0.000000000000
 0.000000000000    0.000000000000   -93357.108551571771

-50150.248248518299   -0.000058233816    0.000000000000
-0.000058233816   -117731.932825521144    0.000000000000
 0.000000000000    0.000000000000   -93357.097325408628

-50150.249666907606   -0.001341044196    0.000000000000
-0.001341044196   -117731.935339785676    0.000000000000
 0.000000000000    0.000000000000   -93357.099351698489

-50150.259929511580   -0.001397256954    0.000000000000
-0.001397256954   -117731.953531488427    0.000000000000
 0.000000000000    0.000000000000   -93357.114627056028

-50150.251359986534   -0.001477289584    0.000000000000
-0.001477289584   -117731.938340971887    0.000000000000
 0.000000000000    0.000000000000   -93357.101810422668

-50150.251628969956   -0.002781003913    0.000000000000
-0.002781003913   -117731.938817777496    0.000000000000
 0.000000000000    0.000000000000   -93357.102281350468

-50150.260486024286   -0.002305909498    0.000000000000
-0.002305909498   -117731.954517974722    0.000000000000
 0.000000000000    0.000000000000   -93357.115601085025

-50150.250359347541   -0.001016757795    0.000000000000
-0.001016757795   -117731.936567218960    0.000000000000
 0.000000000000    0.000000000000   -93357.100439936548

-50150.249537562573   -0.000752670292    0.000000000000
-0.000752670292   -117731.935110506151    0.000000000000
 0.000000000000    0.000000000000   -93357.099046448784

-50150.257851726026   -0.000315679580    0.000000000000
-0.000315679580   -117731.949848362288    0.000000000000
 0.000000000000    0.000000000000   -93357.111243493971

-50150.246254088634    0.000419886446    0.000000000000
 0.000419886446   -117731.929290150743    0.000000000000
 0.000000000000    0.000000000000   -93357.093765617930

-50150.243694033496    0.001031777665    0.000000000000
 0.001031777665   -117731.924752146282    0.000000000000
 0.000000000000    0.000000000000   -93357.089929815294

-50150.251675237450    0.000430457138    0.000000000000
 0.000430457138   -117731.938899793429    0.000000000000
 0.000000000000    0.000000000000   -93357.102100519929

-50150.241200278411   -0.004397870136    0.000000000000
-0.004397870136   -117731.920331665868    0.000000000000
 0.000000000000    0.000000000000   -93357.086779496924

-50150.231152805805   -0.000643391885    0.000000000000
-0.000643391885   -117731.902521311000    0.000000000000
 0.000000000000    0.000000000000   -93357.071101498266

-50150.255088748148   -0.006885697881    0.000000000000
-0.006885697881   -117731.944950650155    0.000000000000
 0.000000000000    0.000000000000   -93357.107335735462

-50150.263826685987   -0.002052359029    0.000000000000
-0.002052359029   -117731.960439693154    0.000000000000
 0.000000000000    0.000000000000   -93357.119367615858

-50150.275894639737    0.001614669198    0.000000000000
 0.001614669198   -117731.981831598940    0.000000000000
 0.000000000000    0.000000000000   -93357.138432293053

-50150.256368239032   -0.000255719195    0.000000000000
-0.000255719195   -117731.947218700996    0.000000000000
 0.000000000000    0.000000000000   -93357.109271480775

-50150.222932990044    0.007015656655    0.000000000000
 0.007015656655   -117731.887950702439    0.000000000000
 0.000000000000    0.000000000000   -93357.059967483161

-50150.236318133728   -0.003965047463    0.000000000000
-0.003965047463   -117731.911677478114    0.000000000000
 0.000000000000    0.000000000000   -93357.079450938036

-50150.253097640583   -0.000764388862    0.000000000000
-0.000764388862   -117731.941421172873    0.000000000000
 0.000000000000    0.000000000000   -93357.103957674204

-50150.239320492488   -0.000990520817    0.000000000000
-0.000990520817   -117731.916999524547    0.000000000000
 0.000000000000    0.000000000000   -93357.084400512831

-50150.256123225379    0.001344623242    0.000000000000
 0.001344623242   -117731.946784384461    0.000000000000
 0.000000000000    0.000000000000   -93357.108218992114

-50150.261249216943    0.004320197196    0.000000000000
 0.004320197196   -117731.955870820311    0.000000000000
 0.000000000000    0.000000000000   -93357.115728902572

-50150.256134104377    0.004602996140    0.000000000000
 0.004602996140   -117731.946803669765    0.000000000000
 0.000000000000    0.000000000000   -93357.108709282882

-50150.248212669147    0.003136123050    0.000000000000
 0.003136123050   -117731.932761977019    0.000000000000
 0.000000000000    0.000000000000   -93357.097587224009

-50150.246502213078    0.001479768070    0.000000000000
 0.001479768070   -117731.929729988333    0.000000000000
 0.000000000000    0.000000000000   -93357.095081189444

-50150.247417361468    0.000083512581    0.000000000000
 0.000083512581   -117731.931352198182    0.000000000000
 0.000000000000    0.000000000000   -93357.096241008243

-50150.246989333704   -0.001853801935    0.000000000000
-0.001853801935   -117731.930593466372    0.000000000000
 0.000000000000    0.000000000000   -93357.095411258459

-50150.245134926488   -0.003509804414    0.000000000000
-0.003509804414   -117731.927306305850    0.000000000000
 0.000000000000    0.000000000000   -93357.092592693007

-50150.244318913559   -0.004177441204    0.000000000000
-0.004177441204   -117731.925859825074    0.000000000000
 0.000000000000    0.000000000000   -93357.091487081867

-50150.244786710100   -0.003685945956    0.000000000000
-0.003685945956   -117731.926689051586    0.000000000000
 0.000000000000    0.000000000000   -93357.092334064102

-50150.245558998002   -0.002253984558    0.000000000000
-0.002253984558   -117731.928058025369    0.000000000000
 0.000000000000    0.000000000000   -93357.093531259059

-50150.246352075454   -0.000577059355    0.000000000000
-0.000577059355   -117731.929463850509    0.000000000000
 0.000000000000    0.000000000000   -93357.094653301159

-50150.247052135179    0.000607163458    0.000000000000
 0.000607163458   -117731.930704790197    0.000000000000
 0.000000000000    0.000000000000   -93357.095610518372

-50150.247381785870    0.001098866869    0.000000000000
 0.001098866869   -117731.931289135362    0.000000000000
 0.000000000000    0.000000000000   -93357.096032139380

-50150.247464044514    0.001044648195    0.000000000000
 0.001044648195   -117731.931434948434    0.000000000000
 0.000000000000    0.000000000000   -93357.096090781808

-50150.247402813766    0.000481872963    0.000000000000
 0.000481872963   -117731.931326409191    0.000000000000
 0.000000000000    0.000000000000   -93357.095917048951

-50150.247380903573   -0.000179923945    0.000000000000
-0.000179923945   -117731.931287570304    0.000000000000
 0.000000000000    0.000000000000   -93357.095784142235

-50150.247681922447   -0.000730965583    0.000000000000
-0.000730965583   -117731.931821161998    0.000000000000
 0.000000000000    0.000000000000   -93357.096136313150

-50150.248048036461   -0.000950601274    0.000000000000
-0.000950601274   -117731.932470142783    0.000000000000
 0.000000000000    0.000000000000   -93357.096610242676

-50150.248124487938   -0.000942394185    0.000000000000
-0.000942394185   -117731.932605662048    0.000000000000
 0.000000000000    0.000000000000   -93357.096688014557

-50150.249983259637   -0.000562393883    0.000000000000
-0.000562393883   -117731.935900558718    0.000000000000
 0.000000000000    0.000000000000   -93357.099489949353

-50150.249785715670   -0.000498454885    0.000000000000
-0.000498454885   -117731.935550388502    0.000000000000
 0.000000000000    0.000000000000   -93357.099245278601

-50150.249690429075   -0.000565386280    0.000000000000
-0.000565386280   -117731.935381481948    0.000000000000
 0.000000000000    0.000000000000   -93357.099186700303

-50150.249450174400   -0.000384727509    0.000000000000
-0.000384727509   -117731.934955601871    0.000000000000
 0.000000000000    0.000000000000   -93357.098883726416

-50150.250034845216   -0.000192945086    0.000000000000
-0.000192945086   -117731.935992001614    0.000000000000
 0.000000000000    0.000000000000   -93357.099829115628

-50150.249536985488    0.000164906476    0.000000000000
 0.000164906476   -117731.935109485625    0.000000000000
 0.000000000000    0.000000000000   -93357.099152826981

-50150.249539116950   -0.000167280978    0.000000000000
-0.000167280978   -117731.935113264248    0.000000000000
 0.000000000000    0.000000000000   -93357.099227596831

-50150.249745471578   -0.000451944993    0.000000000000
-0.000451944993   -117731.935479052860    0.000000000000
 0.000000000000    0.000000000000   -93357.099579273694

-50150.249624623488    0.000256426906    0.000000000000
 0.000256426906   -117731.935264835382    0.000000000000
 0.000000000000    0.000000000000   -93357.099469109191

-50150.250143532707    0.001017443791    0.000000000000
 0.001017443791   -117731.936184664461    0.000000000000
 0.000000000000    0.000000000000   -93357.100259651430

-50150.246757114677    0.000270230774    0.000000000000
 0.000270230774   -117731.930181831325    0.000000000000
 0.000000000000    0.000000000000   -93357.095272816747

-50150.248161489464   -0.001542388813    0.000000000000
-0.001542388813   -117731.932671254413    0.000000000000
 0.000000000000    0.000000000000   -93357.097337353742

-50150.244866890018    0.000999816045    0.000000000000
 0.000999816045   -117731.926831180623    0.000000000000
 0.000000000000    0.000000000000   -93357.092443388901

-50150.247229512970    0.002706607519    0.000000000000
 0.002706607519   -117731.931019213764    0.000000000000
 0.000000000000    0.000000000000   -93357.095959363593

-50150.242540519175   -0.000358019302    0.000000000000
-0.000358019302   -117731.922707407735    0.000000000000
 0.000000000000    0.000000000000   -93357.088834616938

-50150.236028186300    0.001996290535    0.000000000000
 0.001996290535   -117731.911163513432    0.000000000000
 0.000000000000    0.000000000000   -93357.079097331894

-50150.255130428646   -0.010530307160    0.000000000000
-0.010530307160   -117731.945024531975    0.000000000000
 0.000000000000    0.000000000000   -93357.107468330039

-50150.260286650664   -0.009077993846    0.000000000000
-0.009077993846   -117731.954164556868    0.000000000000
 0.000000000000    0.000000000000   -93357.115225517628

-50150.236055875343    0.010620388507    0.000000000000
 0.010620388507   -117731.911212585663    0.000000000000
 0.000000000000    0.000000000000   -93357.079049438136

-50150.248306928246    0.011923777563    0.000000000000
 0.011923777563   -117731.932929052709    0.000000000000
 0.000000000000    0.000000000000   -93357.097312917525

-50150.257564116226   -0.016105764594    0.000000000000
-0.016105764594   -117731.949338527775    0.000000000000
 0.000000000000    0.000000000000   -93357.111162363275

-50150.240096035268   -0.012434886194    0.000000000000
-0.012434886194   -117731.918374257395    0.000000000000
 0.000000000000    0.000000000000   -93357.085047209141

-50150.256584602575    0.006011402313    0.000000000000
 0.006011402313   -117731.947602233180    0.000000000000
 0.000000000000    0.000000000000   -93357.109654190761

-50150.250070452392   -0.002818664211    0.000000000000
-0.002818664211   -117731.936055119440    0.000000000000
 0.000000000000    0.000000000000   -93357.099932985759

-50150.245845648227    0.014903096879    0.000000000000
 0.014903096879   -117731.928566134171    0.000000000000
 0.000000000000    0.000000000000   -93357.093618322571

-50150.252091421433    0.017975491842    0.000000000000
 0.017975491842   -117731.939637514020    0.000000000000
 0.000000000000    0.000000000000   -93357.102908183035

-50150.253198962753   -0.018264802102    0.000000000000
-0.018264802102   -117731.941600764141    0.000000000000
 0.000000000000    0.000000000000   -93357.104660145997

-50150.242672664026   -0.014533975314    0.000000000000
-0.014533975314   -117731.922941638375    0.000000000000
 0.000000000000    0.000000000000   -93357.088816154283

-50150.252159854601    0.003739814365    0.000000000000
 0.003739814365   -117731.939758836466    0.000000000000
 0.000000000000    0.000000000000   -93357.103148572787

-50150.248730464882   -0.003974511030    0.000000000000
-0.003974511030   -117731.933679829992    0.000000000000
 0.000000000000    0.000000000000   -93357.097932934936

-50150.244269200761    0.014013313522    0.000000000000
 0.014013313522   -117731.925771693088    0.000000000000
 0.000000000000    0.000000000000   -93357.091385754989

-50150.247599871102    0.017894237103    0.000000000000
 0.017894237103   -117731.931675700922    0.000000000000
 0.000000000000    0.000000000000   -93357.096351953398

-50150.252911172473   -0.019312885591    0.000000000000
-0.019312885591   -117731.941090620210    0.000000000000
 0.000000000000    0.000000000000   -93357.104317539182

-50150.237748499218   -0.015553128532    0.000000000000
-0.015553128532   -117731.914212963879    0.000000000000
 0.000000000000    0.000000000000   -93357.081705886929

-50150.252653840958    0.002435014270    0.000000000000
 0.002435014270   -117731.940634487168    0.000000000000
 0.000000000000    0.000000000000   -93357.103917696295

-50150.244702627591   -0.005321902076    0.000000000000
-0.005321902076   -117731.926540004075    0.000000000000
 0.000000000000    0.000000000000   -93357.092094462758

-50150.245313432009    0.012840222569    0.000000000000
 0.012840222569   -117731.927622719813    0.000000000000
 0.000000000000    0.000000000000   -93357.092918936512

-50150.245016547946    0.016690803006    0.000000000000
 0.016690803006   -117731.927096450701    0.000000000000
 0.000000000000    0.000000000000   -93357.092447882460

-50150.254673360796   -0.020064578095    0.000000000000
-0.020064578095   -117731.944214309551    0.000000000000
 0.000000000000    0.000000000000   -93357.106878223276

-50150.237429725603   -0.016110753652    0.000000000000
-0.016110753652   -117731.913647897440    0.000000000000
 0.000000000000    0.000000000000   -93357.080920027904

-50150.255073192850    0.002410342042    0.000000000000
 0.002410342042   -117731.944923079078    0.000000000000
 0.000000000000    0.000000000000   -93357.107440684107

-50150.247651596939   -0.004885966793    0.000000000000
-0.004885966793   -117731.931767405316    0.000000000000
 0.000000000000    0.000000000000   -93357.096067896229

-50150.247799119868    0.013577057809    0.000000000000
 0.013577057809   -117731.932028899435    0.000000000000
 0.000000000000    0.000000000000   -93357.096549735172

-50150.251155662634    0.018111761178    0.000000000000
 0.018111761178   -117731.937978767150    0.000000000000
 0.000000000000    0.000000000000   -93357.101310990329

-50150.256403160005   -0.018601120754    0.000000000000
-0.018601120754   -117731.947280588618    0.000000000000
 0.000000000000    0.000000000000   -93357.109374802458

-50150.244890489106   -0.014434573167    0.000000000000
-0.014434573167   -117731.926872999800    0.000000000000
 0.000000000000    0.000000000000   -93357.092022671422

-50150.255683858246    0.004370332050    0.000000000000
 0.004370332050   -117731.946005555874    0.000000000000
 0.000000000000    0.000000000000   -93357.108217290574

-50150.254589420365   -0.004193743723    0.000000000000
-0.004193743723   -117731.944065532967    0.000000000000
 0.000000000000    0.000000000000   -93357.106544189824

-50150.247366108291    0.014517441635    0.000000000000
 0.014517441635   -117731.931261332546    0.000000000000
 0.000000000000    0.000000000000   -93357.095679227758

-50150.257510252923    0.018084188727    0.000000000000
 0.018084188727   -117731.949243043477    0.000000000000
 0.000000000000    0.000000000000   -93357.110808412021

-50150.256090946074   -0.018154114021    0.000000000000
-0.018154114021   -117731.946727150775    0.000000000000
 0.000000000000    0.000000000000   -93357.108610045107

-50150.248384587947   -0.013459979786    0.000000000000
-0.013459979786   -117731.933066710422    0.000000000000
 0.000000000000    0.000000000000   -93357.097054910817

-50150.259043491184    0.004503221213    0.000000000000
 0.004503221213   -117731.951960907987    0.000000000000
 0.000000000000    0.000000000000   -93357.112900390552

-50150.252575084218   -0.005373112163    0.000000000000
-0.005373112163   -117731.940494878465    0.000000000000
 0.000000000000    0.000000000000   -93357.103374810453

-50150.255784098219    0.014477168806    0.000000000000
 0.014477168806   -117731.946183230175    0.000000000000
 0.000000000000    0.000000000000   -93357.108051939533

-50150.254202473749    0.013438058499    0.000000000000
 0.013438058499   -117731.943379612290    0.000000000000
 0.000000000000    0.000000000000   -93357.105929688259

-50150.267138736694   -0.020066411070    0.000000000000
-0.020066411070   -117731.966310686636    0.000000000000
 0.000000000000    0.000000000000   -93357.125347323134

-50150.248075361887   -0.012169980761    0.000000000000
-0.012169980761   -117731.932518568879    0.000000000000
 0.000000000000    0.000000000000   -93357.096600906254

-50150.267229227436    0.003063123442    0.000000000000
 0.003063123442   -117731.966471113046    0.000000000000
 0.000000000000    0.000000000000   -93357.125877931059

-50150.245238150470    0.012857927205    0.000000000000
 0.012857927205   -117731.927489273410    0.000000000000
 0.000000000000    0.000000000000   -93357.092567376210

-50150.250905200359   -0.008764999840    0.000000000000
-0.008764999840   -117731.937534804078    0.000000000000
 0.000000000000    0.000000000000   -93357.100485913310

-50150.244722686330   -0.008033631128    0.000000000000
-0.008033631128   -117731.926575564634    0.000000000000
 0.000000000000    0.000000000000   -93357.093337262137

-50150.249220217898   -0.001613329723    0.000000000000
-0.001613329723   -117731.934547975805    0.000000000000
 0.000000000000    0.000000000000   -93357.098490922377

-50150.243445001353    0.002012572893    0.000000000000
 0.002012572893   -117731.924310711722    0.000000000000
 0.000000000000    0.000000000000   -93357.090973231883

-50150.235548715078    0.005133900542    0.000000000000
 0.005133900542   -117731.910313589964    0.000000000000
 0.000000000000    0.000000000000   -93357.077837084435

-50150.252459942341   -0.000626005786    0.000000000000
-0.000626005786   -117731.940290778322    0.000000000000
 0.000000000000    0.000000000000   -93357.103509960900

-50150.221467570111   -0.002536851275    0.000000000000
-0.002536851275   -117731.885353061327    0.000000000000
 0.000000000000    0.000000000000   -93357.056173937119

-50150.266794477291    0.004256400977    0.000000000000
 0.004256400977   -117731.965700467117    0.000000000000
 0.000000000000    0.000000000000   -93357.125254391111

-50150.234572606525   -0.000546308509    0.000000000000
-0.000546308509   -117731.908583324490    0.000000000000
 0.000000000000    0.000000000000   -93357.077122827875

-50150.265373698523   -0.002887577296    0.000000000000
-0.002887577296   -117731.963181963059    0.000000000000
 0.000000000000    0.000000000000   -93357.122778338948

-50150.254395091048    0.005574263586    0.000000000000
 0.005574263586   -117731.943721058778    0.000000000000
 0.000000000000    0.000000000000   -93357.106816932835

-50150.250954300907    0.000924027902    0.000000000000
 0.000924027902   -117731.937621847304    0.000000000000
 0.000000000000    0.000000000000   -93357.101364830174

-50150.245844795034   -0.001906375551    0.000000000000
-0.001906375551   -117731.928564633476    0.000000000000
 0.000000000000    0.000000000000   -93357.093645804649

-50150.240426982913    0.006013486918    0.000000000000
 0.006013486918   -117731.918960910727    0.000000000000
 0.000000000000    0.000000000000   -93357.086231172667

-50150.241946251917   -0.002077998617    0.000000000000
-0.002077998617   -117731.921653996251    0.000000000000
 0.000000000000    0.000000000000   -93357.087747045749

-50150.252000082241   -0.008888990444    0.000000000000
-0.008888990444   -117731.939475617546    0.000000000000
 0.000000000000    0.000000000000   -93357.102779224340

-50150.246935621952   -0.005040237719    0.000000000000
-0.005040237719   -117731.930498256057    0.000000000000
 0.000000000000    0.000000000000   -93357.095670732175

-50150.237210322477   -0.004584725510    0.000000000000
-0.004584725510   -117731.913258992572    0.000000000000
 0.000000000000    0.000000000000   -93357.081051136687

-50150.252917671271   -0.001718345176    0.000000000000
-0.001718345176   -117731.941102155106    0.000000000000
 0.000000000000    0.000000000000   -93357.103616472305

-50150.245927660057    0.006566822136    0.000000000000
 0.006566822136   -117731.928711517670    0.000000000000
 0.000000000000    0.000000000000   -93357.093224740980

-50150.246037711258    0.007776584369    0.000000000000
 0.007776584369   -117731.928906596309    0.000000000000
 0.000000000000    0.000000000000   -93357.093561006317

-50150.245955758328    0.005011079276    0.000000000000
 0.005011079276   -117731.928761325515    0.000000000000
 0.000000000000    0.000000000000   -93357.093256908294

-50150.251265809668    0.002615343122    0.000000000000
 0.002615343122   -117731.938174033159    0.000000000000
 0.000000000000    0.000000000000   -93357.101557402930

-50150.244643894221    0.002981885948    0.000000000000
 0.002981885948   -117731.926435889851    0.000000000000
 0.000000000000    0.000000000000   -93357.091352263538

-50150.251174972407    0.001461690362    0.000000000000
 0.001461690362   -117731.938013015431    0.000000000000
 0.000000000000    0.000000000000   -93357.101809574000

-50150.243464680600    0.001166054730    0.000000000000
 0.001166054730   -117731.924345593405    0.000000000000
 0.000000000000    0.000000000000   -93357.089861546265

-50150.249892513195    0.001600894387    0.000000000000
 0.001600894387   -117731.935739702458    0.000000000000
 0.000000000000    0.000000000000   -93357.099962279914

-50150.243160797232    0.000906161398    0.000000000000
 0.000906161398   -117731.923806924577    0.000000000000
 0.000000000000    0.000000000000   -93357.089621082298

-50150.247726227943    0.001466344424    0.000000000000
 0.001466344424   -117731.931899700750    0.000000000000
 0.000000000000    0.000000000000   -93357.096636210510

-50150.245458609475    0.000143455509    0.000000000000
 0.000143455509   -117731.927880074436    0.000000000000
 0.000000000000    0.000000000000   -93357.093296525389

-50150.247255386130   -0.000609391845    0.000000000000
-0.000609391845   -117731.931065077486    0.000000000000
 0.000000000000    0.000000000000   -93357.096028641157

-50150.247797418560   -0.001900005192    0.000000000000
-0.001900005192   -117731.932025895570    0.000000000000
 0.000000000000    0.000000000000   -93357.096944030462

-50150.248686871506   -0.002791419427    0.000000000000
-0.002791419427   -117731.933602557794    0.000000000000
 0.000000000000    0.000000000000   -93357.098276305886

-50150.249222540908   -0.003424659610    0.000000000000
-0.003424659610   -117731.934552096121    0.000000000000
 0.000000000000    0.000000000000   -93357.099081551773

-50150.250319751882   -0.003538562456    0.000000000000
-0.003538562456   -117731.936497034680    0.000000000000
 0.000000000000    0.000000000000   -93357.100742284616

-50150.250379468824   -0.003713417931    0.000000000000
-0.003713417931   -117731.936602889851    0.000000000000
 0.000000000000    0.000000000000   -93357.100777746746

-50150.251377202891   -0.003261235302    0.000000000000
-0.003261235302   -117731.938371493656    0.000000000000
 0.000000000000    0.000000000000   -93357.102264200425

-50150.251598723873   -0.002880790101    0.000000000000
-0.002880790101   -117731.938764166291    0.000000000000
 0.000000000000    0.000000000000   -93357.102583196276

-50150.251863251018   -0.002324300884    0.000000000000
-0.002324300884   -117731.939233072102    0.000000000000
 0.000000000000    0.000000000000   -93357.102870647534

-50150.252487730919   -0.001450878453    0.000000000000
-0.001450878453   -117731.940340038389    0.000000000000
 0.000000000000    0.000000000000   -93357.103882299096

-50150.252006195718   -0.000979260211    0.000000000000
-0.000979260211   -117731.939486458403    0.000000000000
 0.000000000000    0.000000000000   -93357.102960032367

-50150.252728311549   -0.000100125754    0.000000000000
-0.000100125754   -117731.940766496293    0.000000000000
 0.000000000000    0.000000000000   -93357.104173402506

-50150.251960272260    0.000227055144    0.000000000000
 0.000227055144   -117731.939405053214    0.000000000000
 0.000000000000    0.000000000000   -93357.102810856915

-50150.252502393538    0.000722414168    0.000000000000
 0.000722414168   -117731.940366028895    0.000000000000
 0.000000000000    0.000000000000   -93357.103727213791

-50150.251799622813    0.000818895289    0.000000000000
 0.000818895289   -117731.939120282506    0.000000000000
 0.000000000000    0.000000000000   -93357.102526177317

-50150.252201292053    0.001034103714    0.000000000000
 0.001034103714   -117731.939832289660    0.000000000000
 0.000000000000    0.000000000000   -93357.103148043883

-50150.251609673913    0.000888775356    0.000000000000
 0.000888775356   -117731.938783575053    0.000000000000
 0.000000000000    0.000000000000   -93357.102204289404

-50150.251884640849    0.000843448612    0.000000000000
 0.000843448612   -117731.939270986753    0.000000000000
 0.000000000000    0.000000000000   -93357.102551937453

-50150.251427249546    0.000574146064    0.000000000000
 0.000574146064   -117731.938460205725    0.000000000000
 0.000000000000    0.000000000000   -93357.101887684985

-50150.251586665676    0.000342120485    0.000000000000
 0.000342120485   -117731.938742789469    0.000000000000
 0.000000000000    0.000000000000   -93357.102010544477

-50150.251494871292    0.000076970723    0.000000000000
 0.000076970723   -117731.938580073198    0.000000000000
 0.000000000000    0.000000000000   -93357.101938213716

-50150.251428678675   -0.000078736435    0.000000000000
-0.000078736435   -117731.938462738210    0.000000000000
 0.000000000000    0.000000000000   -93357.101711395604

-50150.251767929803   -0.000291018688    0.000000000000
-0.000291018688   -117731.939064102015    0.000000000000
 0.000000000000    0.000000000000   -93357.102291331481

-50150.251337757603   -0.000472006437    0.000000000000
-0.000472006437   -117731.938301569462    0.000000000000
 0.000000000000    0.000000000000   -93357.101532810280

-50150.252096990778   -0.000573290280    0.000000000000
-0.000573290280   -117731.939647401901    0.000000000000
 0.000000000000    0.000000000000   -93357.102723948643

-50150.251440932014   -0.000781909800    0.000000000000
-0.000781909800   -117731.938484458384    0.000000000000
 0.000000000000    0.000000000000   -93357.101659318505

-50150.251722178364   -0.000677201665    0.000000000000
-0.000677201665   -117731.938983001484    0.000000000000
 0.000000000000    0.000000000000   -93357.102098061776

-50150.251430078759   -0.000577590994    0.000000000000
-0.000577590994   -117731.938465219544    0.000000000000
 0.000000000000    0.000000000000   -93357.101613593361

-50150.252163143101   -0.000488219694    0.000000000000
-0.000488219694   -117731.939764664276    0.000000000000
 0.000000000000    0.000000000000   -93357.102702960052

-50150.249601467760   -0.000463757720    0.000000000000
-0.000463757720   -117731.935223786393    0.000000000000
 0.000000000000    0.000000000000   -93357.098855491058

-50150.251998522945   -0.000302843721    0.000000000000
-0.000302843721   -117731.939472855360    0.000000000000
 0.000000000000    0.000000000000   -93357.102473257924

-50150.251861507175   -0.000389292107    0.000000000000
-0.000389292107   -117731.939229978918    0.000000000000
 0.000000000000    0.000000000000   -93357.102382180805

-50150.251323390490   -0.000099783068    0.000000000000
-0.000099783068   -117731.938276102926    0.000000000000
 0.000000000000    0.000000000000   -93357.101706521338

-50150.250462191034   -0.000224101558    0.000000000000
-0.000224101558   -117731.936749523855    0.000000000000
 0.000000000000    0.000000000000   -93357.100549449839

-50150.250115223316    0.000292690149    0.000000000000
 0.000292690149   -117731.936134482239    0.000000000000
 0.000000000000    0.000000000000   -93357.100118798247

-50150.250334457043   -0.000442392989    0.000000000000
-0.000442392989   -117731.936523100536    0.000000000000
 0.000000000000    0.000000000000   -93357.100476101245

-50150.254339166997    0.000349492013    0.000000000000
 0.000349492013   -117731.943621930346    0.000000000000
 0.000000000000    0.000000000000   -93357.106385244464

-50150.264189129179    0.003632935044    0.000000000000
 0.003632935044   -117731.961082173017    0.000000000000
 0.000000000000    0.000000000000   -93357.121047752385

-50150.255575609146   -0.009340808878    0.000000000000
-0.009340808878   -117731.945813668252    0.000000000000
 0.000000000000    0.000000000000   -93357.108170657913

-50150.247681805384   -0.011118543644    0.000000000000
-0.011118543644   -117731.931820949860    0.000000000000
 0.000000000000    0.000000000000   -93357.096403642397

-50150.258381826214   -0.016433092698    0.000000000000
-0.016433092698   -117731.950788016897    0.000000000000
 0.000000000000    0.000000000000   -93357.112183520600

-50150.222445496569    0.000504889154    0.000000000000
 0.000504889154   -117731.887086560862    0.000000000000
 0.000000000000    0.000000000000   -93357.058574620984

-50150.268201745072    0.012813754205    0.000000000000
 0.012813754205   -117731.968195002453    0.000000000000
 0.000000000000    0.000000000000   -93357.127030817399

-50150.263304422202   -0.012954069001    0.000000000000
-0.012954069001   -117731.959513904352    0.000000000000
 0.000000000000    0.000000000000   -93357.119823030196

-50150.214178902381   -0.000591521579    0.000000000000
-0.000591521579   -117731.872433029173    0.000000000000
 0.000000000000    0.000000000000   -93357.046514933696

-50150.265891246963    0.012462699300    0.000000000000
 0.012462699300   -117731.964099362347    0.000000000000
 0.000000000000    0.000000000000   -93357.123790685146

-50150.267378074197   -0.013219674889    0.000000000000
-0.013219674889   -117731.966734943300    0.000000000000
 0.000000000000    0.000000000000   -93357.125969600005

-50150.218642502121   -0.000584623144    0.000000000000
-0.000584623144   -117731.880345296464    0.000000000000
 0.000000000000    0.000000000000   -93357.053091121546

-50150.269770345774    0.011926904528    0.000000000000
 0.011926904528   -117731.970975532167    0.000000000000
 0.000000000000    0.000000000000   -93357.129437972500

-50150.270568135376   -0.014100185715    0.000000000000
-0.014100185715   -117731.972389708360    0.000000000000
 0.000000000000    0.000000000000   -93357.130645536090

-50150.220683157415   -0.001275949117    0.000000000000
-0.001275949117   -117731.883962603591    0.000000000000
 0.000000000000    0.000000000000   -93357.056167318224

-50150.270111728561    0.011983725342    0.000000000000
 0.011983725342   -117731.971580675963    0.000000000000
 0.000000000000    0.000000000000   -93357.130040786127

-50150.269037493170   -0.013135295099    0.000000000000
-0.013135295099   -117731.969676461042    0.000000000000
 0.000000000000    0.000000000000   -93357.128364936885

-50150.218071464289    0.000031138066    0.000000000000
 0.000031138066   -117731.879333062330    0.000000000000
 0.000000000000    0.000000000000   -93357.052049413687

-50150.266804603962    0.012867356900    0.000000000000
 0.012867356900   -117731.965718396765    0.000000000000
 0.000000000000    0.000000000000   -93357.124689864577

-50150.264651373313   -0.012806751434    0.000000000000
-0.012806751434   -117731.961901533941    0.000000000000
 0.000000000000    0.000000000000   -93357.121419714327

-50150.214897705075    0.000520018269    0.000000000000
 0.000520018269   -117731.873707191757    0.000000000000
 0.000000000000    0.000000000000   -93357.047215458500

-50150.265902070358    0.012917225866    0.000000000000
 0.012917225866   -117731.964118546748    0.000000000000
 0.000000000000    0.000000000000   -93357.123657865188

-50150.263886449968   -0.011141002513    0.000000000000
-0.011141002513   -117731.960545616923    0.000000000000
 0.000000000000    0.000000000000   -93357.120537503899

-50150.211453957527   -0.001221544105    0.000000000000
-0.001221544105   -117731.867602732862    0.000000000000
 0.000000000000    0.000000000000   -93357.041718982480

-50150.255122790200    0.013837387703    0.000000000000
 0.013837387703   -117731.945010978612    0.000000000000
 0.000000000000    0.000000000000   -93357.106983423539

-50150.220089591385    0.000106226580    0.000000000000
 0.000106226580   -117731.882910434710    0.000000000000
 0.000000000000    0.000000000000   -93357.055234421874

-50150.272985199968    0.007967656020    0.000000000000
 0.007967656020   -117731.976674264457    0.000000000000
 0.000000000000    0.000000000000   -93357.134168785909

-50150.254041178923   -0.006389634854    0.000000000000
-0.006389634854   -117731.943093708440    0.000000000000
 0.000000000000    0.000000000000   -93357.105879066483

-50150.265373723989    0.004160749941    0.000000000000
 0.004160749941   -117731.963182008622    0.000000000000
 0.000000000000    0.000000000000   -93357.122848826431

-50150.272138346554   -0.004056426585    0.000000000000
-0.004056426585   -117731.975173115308    0.000000000000
 0.000000000000    0.000000000000   -93357.132502713561

-50150.255783687389    0.004113235686    0.000000000000
 0.004113235686   -117731.946182515778    0.000000000000
 0.000000000000    0.000000000000   -93357.109018648334

-50150.232458892853    0.001526748173    0.000000000000
 0.001526748173   -117731.904836512942    0.000000000000
 0.000000000000    0.000000000000   -93357.074021912791

-50150.249021394688   -0.001554098345    0.000000000000
-0.001554098345   -117731.934195537440    0.000000000000
 0.000000000000    0.000000000000   -93357.098316518764

-50150.253269424458    0.002104123638    0.000000000000
 0.002104123638   -117731.941725681128    0.000000000000
 0.000000000000    0.000000000000   -93357.104417463939

-50150.242207080337   -0.006734681513    0.000000000000
-0.006734681513   -117731.922116345522    0.000000000000
 0.000000000000    0.000000000000   -93357.088428015064

-50150.253388967685   -0.000377848324    0.000000000000
-0.000377848324   -117731.941937586758    0.000000000000
 0.000000000000    0.000000000000   -93357.104723400102

-50150.259555858538    0.001334639663    0.000000000000
 0.001334639663   -117731.952869141707    0.000000000000
 0.000000000000    0.000000000000   -93357.113689391874

-50150.257632950896    0.003978122758    0.000000000000
 0.003978122758   -117731.949460557284    0.000000000000
 0.000000000000    0.000000000000   -93357.111149019867

-50150.252178923372    0.005412099440    0.000000000000
 0.005412099440   -117731.939792638776    0.000000000000
 0.000000000000    0.000000000000   -93357.103430789401

-50150.249787242748    0.000199823022    0.000000000000
 0.000199823022   -117731.935553097850    0.000000000000
 0.000000000000    0.000000000000   -93357.099776712930

-50150.245974790596   -0.001231472296    0.000000000000
-0.001231472296   -117731.928795067477    0.000000000000
 0.000000000000    0.000000000000   -93357.094055238034

-50150.243661607929    0.000251697397    0.000000000000
 0.000251697397   -117731.924694672693    0.000000000000
 0.000000000000    0.000000000000   -93357.090554948722

-50150.242648212821    0.000547948831    0.000000000000
 0.000547948831   -117731.922898308359    0.000000000000
 0.000000000000    0.000000000000   -93357.089143380843

-50150.242802388238   -0.000979552725    0.000000000000
-0.000979552725   -117731.923171603223    0.000000000000
 0.000000000000    0.000000000000   -93357.089458508723

-50150.243674191253   -0.002507661279    0.000000000000
-0.002507661279   -117731.924716978538    0.000000000000
 0.000000000000    0.000000000000   -93357.090716067076

-50150.244903816674   -0.002736554658    0.000000000000
-0.002736554658   -117731.926896637218    0.000000000000
 0.000000000000    0.000000000000   -93357.092486988957

-50150.246245536757   -0.001915140250    0.000000000000
-0.001915140250   -117731.929274997558    0.000000000000
 0.000000000000    0.000000000000   -93357.094462501962

-50150.247257007111   -0.000779258925    0.000000000000
-0.000779258925   -117731.931067950558    0.000000000000
 0.000000000000    0.000000000000   -93357.095966340567

-50150.247710375261    0.000197253967    0.000000000000
 0.000197253967   -117731.931871600187    0.000000000000
 0.000000000000    0.000000000000   -93357.096636192291

-50150.247709376505    0.000765564836    0.000000000000
 0.000765564836   -117731.931869829627    0.000000000000
 0.000000000000    0.000000000000   -93357.096611644200

-50150.247498246797    0.000808411725    0.000000000000
 0.000808411725   -117731.931495576544    0.000000000000
 0.000000000000    0.000000000000   -93357.096244499000

-50150.247235458068    0.000515940460    0.000000000000
 0.000515940460   -117731.931029751548    0.000000000000
 0.000000000000    0.000000000000   -93357.095768353756

-50150.247195297488    0.000159474324    0.000000000000
 0.000159474324   -117731.930958561599    0.000000000000
 0.000000000000    0.000000000000   -93357.095597193780

-50150.247309456463   -0.000200926654    0.000000000000
-0.000200926654   -117731.931160921551    0.000000000000
 0.000000000000    0.000000000000   -93357.095643269742

-50150.247510455316   -0.000477866754    0.000000000000
-0.000477866754   -117731.931517215620    0.000000000000
 0.000000000000    0.000000000000   -93357.095823101379

-50150.247928355006   -0.000602486318    0.000000000000
-0.000602486318   -117731.932257992608    0.000000000000
 0.000000000000    0.000000000000   -93357.096341735276

-50150.248850363641   -0.000482738396    0.000000000000
-0.000482738396   -117731.933892363624    0.000000000000
 0.000000000000    0.000000000000   -93357.097663358407

-50150.250796137669   -0.000392000262    0.000000000000
-0.000392000262   -117731.937341482451    0.000000000000
 0.000000000000    0.000000000000   -93357.100612479262

-50150.249307821949   -0.000091216114    0.000000000000
-0.000091216114   -117731.934703263716    0.000000000000
 0.000000000000    0.000000000000   -93357.098382691212

-50150.250084056774   -0.000019095699    0.000000000000
-0.000019095699   -117731.936079233536    0.000000000000
 0.000000000000    0.000000000000   -93357.099586061828

-50150.249838426520   -0.000203296898    0.000000000000
-0.000203296898   -117731.935643824603    0.000000000000
 0.000000000000    0.000000000000   -93357.099271871179

-50150.249786085755   -0.000218555040    0.000000000000
-0.000218555040   -117731.935551044633    0.000000000000
 0.000000000000    0.000000000000   -93357.099262875243

-50150.249636700973   -0.000073543573    0.000000000000
-0.000073543573   -117731.935286242398    0.000000000000
 0.000000000000    0.000000000000   -93357.099103788918

-50150.249635643282   -0.000354951472    0.000000000000
-0.000354951472   -117731.935284367879    0.000000000000
 0.000000000000    0.000000000000   -93357.099176333315

-50150.249500548161    0.000054363961    0.000000000000
 0.000054363961   -117731.935044895828    0.000000000000
 0.000000000000    0.000000000000   -93357.099041483685

-50150.249824781815    0.000257357181    0.000000000000
 0.000257357181   -117731.935619639276    0.000000000000
 0.000000000000    0.000000000000   -93357.099590297148

-50150.249975094077   -0.000055085675    0.000000000000
-0.000055085675   -117731.935886086139    0.000000000000
 0.000000000000    0.000000000000   -93357.099874915351

-50150.249756706988   -0.000730095930    0.000000000000
-0.000730095930   -117731.935498969004    0.000000000000
 0.000000000000    0.000000000000   -93357.099612994120

-50150.249389753430   -0.000014315505    0.000000000000
-0.000014315505   -117731.934848499906    0.000000000000
 0.000000000000    0.000000000000   -93357.099108997776

-50150.248657335236    0.001640942523    0.000000000000
 0.001640942523   -117731.933550200658    0.000000000000
 0.000000000000    0.000000000000   -93357.098070016451

-50150.249288965773   -0.000052185227    0.000000000000
-0.000052185227   -117731.934669841998    0.000000000000
 0.000000000000    0.000000000000   -93357.099036452928

-50150.246945080013   -0.001554366482    0.000000000000
-0.001554366482   -117731.930515022541    0.000000000000
 0.000000000000    0.000000000000   -93357.095579911911

-50150.244795868995   -0.001212067554    0.000000000000
-0.001212067554   -117731.926705287362    0.000000000000
 0.000000000000    0.000000000000   -93357.092358814145

-50150.242485802417    0.002361690534    0.000000000000
 0.002361690534   -117731.922610416004    0.000000000000
 0.000000000000    0.000000000000   -93357.088877803966

-50150.243731452429    0.006521814969    0.000000000000
 0.006521814969   -117731.924818478714    0.000000000000
 0.000000000000    0.000000000000   -93357.090705033683

-50150.249077366723   -0.004802082863    0.000000000000
-0.004802082863   -117731.934294755541    0.000000000000
 0.000000000000    0.000000000000   -93357.098587223503

-50150.246954408954   -0.008626340161    0.000000000000
-0.008626340161   -117731.930531555015    0.000000000000
 0.000000000000    0.000000000000   -93357.095343058376

-50150.253562607038   -0.000697811720    0.000000000000
-0.000697811720   -117731.942245383238    0.000000000000
 0.000000000000    0.000000000000   -93357.105000899028

-50150.243784407205   -0.006905707473    0.000000000000
-0.006905707473   -117731.924912333270    0.000000000000
 0.000000000000    0.000000000000   -93357.090517773817

-50150.230039667753    0.016054476231    0.000000000000
 0.016054476231   -117731.900548115096    0.000000000000
 0.000000000000    0.000000000000   -93357.069976123792

-50150.248392963258   -0.019090729331    0.000000000000
-0.019090729331   -117731.933081553259    0.000000000000
 0.000000000000    0.000000000000   -93357.097393970558

-50150.261380614334   -0.036843538973    0.000000000000
-0.036843538973   -117731.956103638804    0.000000000000
 0.000000000000    0.000000000000   -93357.116800288204

-50150.258124694359    0.056053291010    0.000000000000
 0.056053291010   -117731.950332027598    0.000000000000
 0.000000000000    0.000000000000   -93357.111932607033

-50150.242227806855   -0.001175328364    0.000000000000
-0.001175328364   -117731.922153084801    0.000000000000
 0.000000000000    0.000000000000   -93357.088217352735

-50150.235679978541   -0.050695977369    0.000000000000
-0.050695977369   -117731.910546054220    0.000000000000
 0.000000000000    0.000000000000   -93357.078424597683

-50150.238877186624    0.051577121639    0.000000000000
 0.051577121639   -117731.916213483652    0.000000000000
 0.000000000000    0.000000000000   -93357.083230848832

-50150.241547332567    0.000867982053    0.000000000000
 0.000867982053   -117731.920946860511    0.000000000000
 0.000000000000    0.000000000000   -93357.087211395003

-50150.264368244534   -0.052152037818    0.000000000000
-0.052152037818   -117731.961399490319    0.000000000000
 0.000000000000    0.000000000000   -93357.121351570007

-50150.263507847354    0.052454021814    0.000000000000
 0.052454021814   -117731.959874329303    0.000000000000
 0.000000000000    0.000000000000   -93357.120030610065

-50150.242389841034   -0.000786276550    0.000000000000
-0.000786276550   -117731.922440309223    0.000000000000
 0.000000000000    0.000000000000   -93357.088572909182

-50150.237375674566   -0.052297670664    0.000000000000
-0.052297670664   -117731.913551875521    0.000000000000
 0.000000000000    0.000000000000   -93357.081040406832

-50150.238781174892    0.052087144860    0.000000000000
 0.052087144860   -117731.916043290694    0.000000000000
 0.000000000000    0.000000000000   -93357.083203804548

-50150.240132740262    0.000476166910    0.000000000000
 0.000476166910   -117731.918439325163    0.000000000000
 0.000000000000    0.000000000000   -93357.085222326918

-50150.264196344011   -0.052766360554    0.000000000000
-0.052766360554   -117731.961094773418    0.000000000000
 0.000000000000    0.000000000000   -93357.121174081156

-50150.261695471330    0.051947941297    0.000000000000
 0.051947941297   -117731.956661672215    0.000000000000
 0.000000000000    0.000000000000   -93357.117451507511

-50150.242535683377   -0.001364453378    0.000000000000
-0.001364453378   -117731.922698832088    0.000000000000
 0.000000000000    0.000000000000   -93357.088798865239

-50150.236306084102   -0.052838332396    0.000000000000
-0.052838332396   -117731.911655900709    0.000000000000
 0.000000000000    0.000000000000   -93357.079489620941

-50150.239836048560    0.051493773353    0.000000000000
 0.051493773353   -117731.917913183686    0.000000000000
 0.000000000000    0.000000000000   -93357.084712814860

-50150.240259421706    0.000010848531    0.000000000000
 0.000010848531   -117731.918663882097    0.000000000000
 0.000000000000    0.000000000000   -93357.085309098387

-50150.266299155635   -0.053000170369    0.000000000000
-0.053000170369   -117731.964822258684    0.000000000000
 0.000000000000    0.000000000000   -93357.124199429847

-50150.263367519838    0.051710991873    0.000000000000
 0.051710991873   -117731.959625578689    0.000000000000
 0.000000000000    0.000000000000   -93357.119710013969

-50150.245404923815   -0.000990004907    0.000000000000
-0.000990004907   -117731.927784905696    0.000000000000
 0.000000000000    0.000000000000   -93357.092965583084

-50150.239475797745   -0.052699813034    0.000000000000
-0.052699813034   -117731.917274596111    0.000000000000
 0.000000000000    0.000000000000   -93357.083954156580

-50150.242768254189    0.052392028005    0.000000000000
 0.052392028005   -117731.923110865129    0.000000000000
 0.000000000000    0.000000000000   -93357.089008717288

-50150.244305098982    0.000393172744    0.000000000000
 0.000393172744   -117731.925835332426    0.000000000000
 0.000000000000    0.000000000000   -93357.091188808146

-50150.268518982281   -0.051879409240    0.000000000000
-0.051879409240   -117731.968757174123    0.000000000000
 0.000000000000    0.000000000000   -93357.127477017930

-50150.267245237534    0.051689198438    0.000000000000
 0.051689198438   -117731.966499306116    0.000000000000
 0.000000000000    0.000000000000   -93357.125523557872

-50150.246742520583   -0.000009661620    0.000000000000
-0.000009661620   -117731.930155956856    0.000000000000
 0.000000000000    0.000000000000   -93357.094963758049

-50150.242876789343   -0.053294517912    0.000000000000
-0.053294517912   -117731.923303255491    0.000000000000
 0.000000000000    0.000000000000   -93357.089190594357

-50150.243428151836    0.053331137960    0.000000000000
 0.053331137960   -117731.924280612060    0.000000000000
 0.000000000000    0.000000000000   -93357.090030113555

-50150.247803622129    0.000159627846    0.000000000000
 0.000159627846   -117731.932036887738    0.000000000000
 0.000000000000    0.000000000000   -93357.096589587833

-50150.268974812010   -0.051694488103    0.000000000000
-0.051694488103   -117731.969565189793    0.000000000000
 0.000000000000    0.000000000000   -93357.128213568882

-50150.268983280606    0.051924178921    0.000000000000
 0.051924178921   -117731.969580199569    0.000000000000
 0.000000000000    0.000000000000   -93357.128224482556

-50150.246662968231   -0.000653060147    0.000000000000
-0.000653060147   -117731.930014940779    0.000000000000
 0.000000000000    0.000000000000   -93357.094879221811

-50150.240462231581   -0.052747076076    0.000000000000
-0.052747076076   -117731.919023168433    0.000000000000
 0.000000000000    0.000000000000   -93357.085565166257

-50150.243910417135    0.050463120054    0.000000000000
 0.050463120054   -117731.925135498343    0.000000000000
 0.000000000000    0.000000000000   -93357.090693393344

-50150.244276463891   -0.000706475972    0.000000000000
-0.000706475972   -117731.925784574123    0.000000000000
 0.000000000000    0.000000000000   -93357.091244791809

-50150.268578077150   -0.050361733125    0.000000000000
-0.050361733125   -117731.968861946560    0.000000000000
 0.000000000000    0.000000000000   -93357.127260708919

-50150.268067988567    0.050140754878    0.000000000000
 0.050140754878   -117731.967957739238    0.000000000000
 0.000000000000    0.000000000000   -93357.126714178332

-50150.257553067349   -0.004275206915    0.000000000000
-0.004275206915   -117731.949318950967    0.000000000000
 0.000000000000    0.000000000000   -93357.110565153824

-50150.237841280468   -0.059783424221    0.000000000000
-0.059783424221   -117731.914377182315    0.000000000000
 0.000000000000    0.000000000000   -93357.080819760333

-50150.285890827639    0.063729265776    0.000000000000
 0.063729265776   -117731.999550768873    0.000000000000
 0.000000000000    0.000000000000   -93357.152261054667

-50150.249359059555    0.017122809800    0.000000000000
 0.017122809800   -117731.934794072731    0.000000000000
 0.000000000000    0.000000000000   -93357.098209839634

-50150.245255943497   -0.003759667052    0.000000000000
-0.003759667052   -117731.927520822923    0.000000000000
 0.000000000000    0.000000000000   -93357.092815858836

-50150.240205476344   -0.001593007358    0.000000000000
-0.001593007358   -117731.918568265406    0.000000000000
 0.000000000000    0.000000000000   -93357.085860221283

-50150.249214628580    0.001907927308    0.000000000000
 0.001907927308   -117731.934538067231    0.000000000000
 0.000000000000    0.000000000000   -93357.098457609623

-50150.241891272221   -0.005422336254    0.000000000000
-0.005422336254   -117731.921556539572    0.000000000000
 0.000000000000    0.000000000000   -93357.088704097929

-50150.243821115437   -0.001952593122    0.000000000000
-0.001952593122   -117731.924977420014    0.000000000000
 0.000000000000    0.000000000000   -93357.091078203404

-50150.247361670736    0.000392181004    0.000000000000
 0.000392181004   -117731.931253479401    0.000000000000
 0.000000000000    0.000000000000   -93357.096117571520

-50150.235361511644    0.007177463778    0.000000000000
 0.007177463778   -117731.909981746503    0.000000000000
 0.000000000000    0.000000000000   -93357.077173910424

-50150.245703580542    0.000457375514    0.000000000000
 0.000457375514   -117731.928314314064    0.000000000000
 0.000000000000    0.000000000000   -93357.093429516040

-50150.224037081462   -0.002398295417    0.000000000000
-0.002398295417   -117731.889907829594    0.000000000000
 0.000000000000    0.000000000000   -93357.060247005997

-50150.249856977010    0.002706258112    0.000000000000
 0.002706258112   -117731.935676704481    0.000000000000
 0.000000000000    0.000000000000   -93357.099454606621

-50150.247756443787   -0.005633853941    0.000000000000
-0.005633853941   -117731.931953261927    0.000000000000
 0.000000000000    0.000000000000   -93357.096935766735

-50150.252315968239   -0.003446355779    0.000000000000
-0.003446355779   -117731.940035565116    0.000000000000
 0.000000000000    0.000000000000   -93357.103085596318

-50150.253434326936    0.007871998014    0.000000000000
 0.007871998014   -117731.942017981637    0.000000000000
 0.000000000000    0.000000000000   -93357.104595811688

-50150.245268175058    0.005472148257    0.000000000000
 0.005472148257   -117731.927542503632    0.000000000000
 0.000000000000    0.000000000000   -93357.093285572249

-50150.242456643384   -0.000927370635    0.000000000000
-0.000927370635   -117731.922558727310    0.000000000000
 0.000000000000    0.000000000000   -93357.088830404347

-50150.247818463860   -0.007604276971    0.000000000000
-0.007604276971   -117731.932063197732    0.000000000000
 0.000000000000    0.000000000000   -93357.096863471568

-50150.241167991568    0.001161107212    0.000000000000
 0.001161107212   -117731.920274437027    0.000000000000
 0.000000000000    0.000000000000   -93357.086713284865

-50150.246579320927    0.000874653793    0.000000000000
 0.000874653793   -117731.929866668725    0.000000000000
 0.000000000000    0.000000000000   -93357.094622576958

-50150.248811461366   -0.004381072668    0.000000000000
-0.004381072668   -117731.933823408457    0.000000000000
 0.000000000000    0.000000000000   -93357.098705004435

-50150.241691783245    0.001539869721    0.000000000000
 0.001539869721   -117731.921202919912    0.000000000000
 0.000000000000    0.000000000000   -93357.087442785021

-50150.252946990506    0.002662283454    0.000000000000
 0.002662283454   -117731.941154127475    0.000000000000
 0.000000000000    0.000000000000   -93357.103787675325

-50150.244339956291    0.001569301025    0.000000000000
 0.001569301025   -117731.925897124864    0.000000000000
 0.000000000000    0.000000000000   -93357.091250292520

-50150.251729708099   -0.000673835544    0.000000000000
-0.000673835544   -117731.938996348501    0.000000000000
 0.000000000000    0.000000000000   -93357.102059337805

-50150.247947935466    0.001912181716    0.000000000000
 0.001912181716   -117731.932292701720    0.000000000000
 0.000000000000    0.000000000000   -93357.096487282586

-50150.246705911515    0.002815306873    0.000000000000
 0.002815306873   -117731.930091064278    0.000000000000
 0.000000000000    0.000000000000   -93357.094573748764

-50150.245447201640    0.001641597049    0.000000000000
 0.001641597049   -117731.927859849107    0.000000000000
 0.000000000000    0.000000000000   -93357.092533340066

-50150.244561365376    0.000854118562    0.000000000000
 0.000854118562   -117731.926289599185    0.000000000000
 0.000000000000    0.000000000000   -93357.091507860023

-50150.243159915583   -0.000971990664    0.000000000000
-0.000971990664   -117731.923805359926    0.000000000000
 0.000000000000    0.000000000000   -93357.089228298268

-50150.246936168158   -0.000556901108    0.000000000000
-0.000556901108   -117731.930499223774    0.000000000000
 0.000000000000    0.000000000000   -93357.095255124354

-50150.244256943057    0.000335763416    0.000000000000
 0.000335763416   -117731.925749974936    0.000000000000
 0.000000000000    0.000000000000   -93357.091258155531

-50150.248113212394    0.000477234590    0.000000000000
 0.000477234590   -117731.932585677976    0.000000000000
 0.000000000000    0.000000000000   -93357.097352808531

-50150.246269452415    0.000785490000    0.000000000000
 0.000785490000   -117731.929317391914    0.000000000000
 0.000000000000    0.000000000000   -93357.094685279299

-50150.247542489924    0.000682818138    0.000000000000
 0.000682818138   -117731.931574004382    0.000000000000
 0.000000000000    0.000000000000   -93357.096644954232

-50150.247461230203   -0.000361046498    0.000000000000
-0.000361046498   -117731.931429962264    0.000000000000
 0.000000000000    0.000000000000   -93357.096631100037

-50150.247174829958   -0.000168209996    0.000000000000
-0.000168209996   -117731.930922283005    0.000000000000
 0.000000000000    0.000000000000   -93357.096125871700

-50150.248164232980   -0.001451755411    0.000000000000
-0.001451755411   -117731.932676118973    0.000000000000
 0.000000000000    0.000000000000   -93357.097629982221

-50150.248380594101   -0.001158703962    0.000000000000
-0.001158703962   -117731.933059645002    0.000000000000
 0.000000000000    0.000000000000   -93357.097927709634

-50150.249287658196   -0.001581949998    0.000000000000
-0.001581949998   -117731.934667524940    0.000000000000
 0.000000000000    0.000000000000   -93357.099224737176

-50150.250324838213   -0.001419198660    0.000000000000
-0.001419198660   -117731.936506051425    0.000000000000
 0.000000000000    0.000000000000   -93357.100791038247

-50150.250976088289   -0.001145587402    0.000000000000
-0.001145587402   -117731.937660470299    0.000000000000
 0.000000000000    0.000000000000   -93357.101699668274

-50150.251909265397   -0.001129556398    0.000000000000
-0.001129556398   -117731.939314638948    0.000000000000
 0.000000000000    0.000000000000   -93357.103080566856

-50150.252467190134   -0.000695622032    0.000000000000
-0.000695622032   -117731.940303627649    0.000000000000
 0.000000000000    0.000000000000   -93357.103893411142

-50150.252810327860   -0.000657369567    0.000000000000
-0.000657369567   -117731.940911880156    0.000000000000
 0.000000000000    0.000000000000   -93357.104320185375

-50150.253167985618   -0.000216245719    0.000000000000
-0.000216245719   -117731.941545871654    0.000000000000
 0.000000000000    0.000000000000   -93357.104868174021

-50150.253035244510   -0.000174831126    0.000000000000
-0.000174831126   -117731.941310571419    0.000000000000
 0.000000000000    0.000000000000   -93357.104530595607

-50150.253115765096    0.000243181514    0.000000000000
 0.000243181514   -117731.941453303909    0.000000000000
 0.000000000000    0.000000000000   -93357.104664080980

-50150.252702033336    0.000193288544    0.000000000000
 0.000193288544   -117731.940719913982    0.000000000000
 0.000000000000    0.000000000000   -93357.103915466781

-50150.252627604219    0.000499873121    0.000000000000
 0.000499873121   -117731.940587979363    0.000000000000
 0.000000000000    0.000000000000   -93357.103793116912

-50150.252105051404    0.000344213300    0.000000000000
 0.000344213300   -117731.939661691256    0.000000000000
 0.000000000000    0.000000000000   -93357.102936550247

-50150.251981049994    0.000439940321    0.000000000000
 0.000439940321   -117731.939441883675    0.000000000000
 0.000000000000    0.000000000000   -93357.102713409113

-50150.251553215719    0.000240296786    0.000000000000
 0.000240296786   -117731.938683495828    0.000000000000
 0.000000000000    0.000000000000   -93357.102053683571

-50150.251488323192    0.000268588762    0.000000000000
 0.000268588762   -117731.938568465761    0.000000000000
 0.000000000000    0.000000000000   -93357.101902399081

-50150.251229784524    0.000114336795    0.000000000000
 0.000114336795   -117731.938110174902    0.000000000000
 0.000000000000    0.000000000000   -93357.101525123260

-50150.251206483052    0.000083810714    0.000000000000
 0.000083810714   -117731.938068869975    0.000000000000
 0.000000000000    0.000000000000   -93357.101429094881

-50150.251193877026   -0.000014720451    0.000000000000
-0.000014720451   -117731.938046524330    0.000000000000
 0.000000000000    0.000000000000   -93357.101423782064

-50150.251153002893   -0.000093003762    0.000000000000
-0.000093003762   -117731.937974069733    0.000000000000
 0.000000000000    0.000000000000   -93357.101301123388

-50150.251443195986   -0.000139749312    0.000000000000
-0.000139749312   -117731.938488471918    0.000000000000
 0.000000000000    0.000000000000   -93357.101740558457

-50150.251286757848   -0.000248235358    0.000000000000
-0.000248235358   -117731.938211166227    0.000000000000
 0.000000000000    0.000000000000   -93357.101451782655

-50150.251647746962   -0.000316190451    0.000000000000
-0.000316190451   -117731.938851062878    0.000000000000
 0.000000000000    0.000000000000   -93357.101986789930

-50150.251616591770   -0.000247673416    0.000000000000
-0.000247673416   -117731.938795836322    0.000000000000
 0.000000000000    0.000000000000   -93357.101893997722

-50150.252051995347   -0.000296199124    0.000000000000
-0.000296199124   -117731.939567641501    0.000000000000
 0.000000000000    0.000000000000   -93357.102533140787

-50150.251630994651   -0.000353347287    0.000000000000
-0.000353347287   -117731.938821366930    0.000000000000
 0.000000000000    0.000000000000   -93357.101862737327

-50150.252697658274   -0.000078877388    0.000000000000
-0.000078877388   -117731.940712156473    0.000000000000
 0.000000000000    0.000000000000   -93357.103438033068

-50150.250741936245   -0.000336067224    0.000000000000
-0.000336067224   -117731.937245403868    0.000000000000
 0.000000000000    0.000000000000   -93357.100522041714

-50150.250599927153   -0.000480648319    0.000000000000
-0.000480648319   -117731.936993675845    0.000000000000
 0.000000000000    0.000000000000   -93357.100357314557

-50150.250318539649   -0.000499996494    0.000000000000
-0.000499996494   -117731.936494882961    0.000000000000
 0.000000000000    0.000000000000   -93357.099997779398

-50150.250086966349   -0.000279095268    0.000000000000
-0.000279095268   -117731.936084391738    0.000000000000
 0.000000000000    0.000000000000   -93357.099722032435

-50150.249971444013    0.000004312037    0.000000000000
 0.000004312037   -117731.935879614801    0.000000000000
 0.000000000000    0.000000000000   -93357.099623824979

-50150.250027129739    0.000329101148    0.000000000000
 0.000329101148   -117731.935978324836    0.000000000000
 0.000000000000    0.000000000000   -93357.099781883226

-50150.250293714227    0.000622802210    0.000000000000
 0.000622802210   -117731.936450878231    0.000000000000
 0.000000000000    0.000000000000   -93357.100256028716

-50150.250656865632    0.000711843664    0.000000000000
 0.000711843664   -117731.937094608191    0.000000000000
 0.000000000000    0.000000000000   -93357.100876671917

-50150.250950036010    0.000391459695    0.000000000000
 0.000391459695   -117731.937614288312    0.000000000000
 0.000000000000    0.000000000000   -93357.101394242505

-50150.250984186627   -0.000342077961    0.000000000000
-0.000342077961   -117731.937674824745    0.000000000000
 0.000000000000    0.000000000000   -93357.101522456229

-50150.250521840637   -0.001303761685    0.000000000000
-0.001303761685   -117731.936855261083    0.000000000000
 0.000000000000    0.000000000000   -93357.100899230936

-50150.249501772312   -0.002178144019    0.000000000000
-0.002178144019   -117731.935047067338    0.000000000000
 0.000000000000    0.000000000000   -93357.099429520473

-50150.248148287501   -0.002582890830    0.000000000000
-0.002582890830   -117731.932647852766    0.000000000000
 0.000000000000    0.000000000000   -93357.097456477160

-50150.246821803157   -0.002052292069    0.000000000000
-0.002052292069   -117731.930296499937    0.000000000000
 0.000000000000    0.000000000000   -93357.095515020890

-50150.245856577647   -0.000578376237    0.000000000000
-0.000578376237   -117731.928585521629    0.000000000000
 0.000000000000    0.000000000000   -93357.094055255482

-50150.245551100081    0.000646292383    0.000000000000
 0.000646292383   -117731.928044025422    0.000000000000
 0.000000000000    0.000000000000   -93357.093493549837

-50150.245843310731    0.000390046482    0.000000000000
 0.000390046482   -117731.928562003377    0.000000000000
 0.000000000000    0.000000000000   -93357.093800752176

-50150.246749628343    0.000011200674    0.000000000000
 0.000011200674   -117731.930168559644    0.000000000000
 0.000000000000    0.000000000000   -93357.094997748980

-50150.247980739507    0.002284144524    0.000000000000
 0.002284144524   -117731.932350851319    0.000000000000
 0.000000000000    0.000000000000   -93357.096693061481

-50150.249409865144    0.004484229072    0.000000000000
 0.004484229072   -117731.934884147355    0.000000000000
 0.000000000000    0.000000000000   -93357.098743125869

-50150.252017300860    0.001842784144    0.000000000000
 0.001842784144   -117731.939506140872    0.000000000000
 0.000000000000    0.000000000000   -93357.102498209206

-50150.251267356565    0.000062517447    0.000000000000
 0.000062517447   -117731.938176775016    0.000000000000
 0.000000000000    0.000000000000   -93357.101468960362

-50150.245831511558   -0.002360315197    0.000000000000
-0.002360315197   -117731.928541087647    0.000000000000
 0.000000000000    0.000000000000   -93357.093903287838

-50150.246401549062   -0.003673452782    0.000000000000
-0.003673452782   -117731.929551545836    0.000000000000
 0.000000000000    0.000000000000   -93357.094491417593

-50150.246047902583    0.001533652380    0.000000000000
 0.001533652380   -117731.928924665597    0.000000000000
 0.000000000000    0.000000000000   -93357.094121156100

-50150.248763329117    0.001816097258    0.000000000000
 0.001816097258   -117731.933738083870    0.000000000000
 0.000000000000    0.000000000000   -93357.098033600429

-50150.247633717685   -0.000120249629    0.000000000000
-0.000120249629   -117731.931735713777    0.000000000000
 0.000000000000    0.000000000000   -93357.096555350188

-50150.247654123894   -0.000027426850    0.000000000000
-0.000027426850   -117731.931771883872    0.000000000000
 0.000000000000    0.000000000000   -93357.096104368684

-50150.251373985062    0.002030310482    0.000000000000
 0.002030310482   -117731.938365786351    0.000000000000
 0.000000000000    0.000000000000   -93357.101665011214

-50150.249632084975   -0.001534095186    0.000000000000
-0.001534095186   -117731.935278060671    0.000000000000
 0.000000000000    0.000000000000   -93357.099662391425

-50150.252012395089   -0.002484281642    0.000000000000
-0.002484281642   -117731.939497445725    0.000000000000
 0.000000000000    0.000000000000   -93357.103031476450

-50150.251812656970    0.003425976579    0.000000000000
 0.003425976579   -117731.939143377836    0.000000000000
 0.000000000000    0.000000000000   -93357.102211041769

-50150.254008189477   -0.002748938187    0.000000000000
-0.002748938187   -117731.943035129865    0.000000000000
 0.000000000000    0.000000000000   -93357.105337670495

-50150.251235317039    0.004374166622    0.000000000000
 0.004374166622   -117731.938119942861    0.000000000000
 0.000000000000    0.000000000000   -93357.101321661263

-50150.249696920095   -0.005919254735    0.000000000000
-0.005919254735   -117731.935392952160    0.000000000000
 0.000000000000    0.000000000000   -93357.099123935797

-50150.254296624073   -0.000229603937    0.000000000000
-0.000229603937   -117731.943546436145    0.000000000000
 0.000000000000    0.000000000000   -93357.106121521618

-50150.250153593050    0.005515711517    0.000000000000
 0.005515711517   -117731.936202456665    0.000000000000
 0.000000000000    0.000000000000   -93357.099940330663

-50150.250200645612   -0.005203327177    0.000000000000
-0.005203327177   -117731.936285863223    0.000000000000
 0.000000000000    0.000000000000   -93357.099987661568

-50150.254672366187    0.000045635640    0.000000000000
 0.000045635640   -117731.944212481190    0.000000000000
 0.000000000000    0.000000000000   -93357.106681961202

-50150.250026245914    0.005257056310    0.000000000000
 0.005257056310   -117731.935976718392    0.000000000000
 0.000000000000    0.000000000000   -93357.099770678018

-50150.249814636867   -0.005483595757    0.000000000000
-0.005483595757   -117731.935601616089    0.000000000000
 0.000000000000    0.000000000000   -93357.099490150344

-50150.254019677239   -0.000655829923    0.000000000000
-0.000655829923   -117731.943055513781    0.000000000000
 0.000000000000    0.000000000000   -93357.105812862865

-50150.248611736002    0.004208905241    0.000000000000
 0.004208905241   -117731.933469328491    0.000000000000
 0.000000000000    0.000000000000   -93357.097780325435

-50150.248023308348   -0.006472405182    0.000000000000
-0.006472405182   -117731.932426270549    0.000000000000
 0.000000000000    0.000000000000   -93357.096948033592

-50150.252306180395   -0.001067454672    0.000000000000
-0.001067454672   -117731.940018136040    0.000000000000
 0.000000000000    0.000000000000   -93357.103383017238

-50150.247217279044    0.004509959197    0.000000000000
 0.004509959197   -117731.930997486168    0.000000000000
 0.000000000000    0.000000000000   -93357.095800482144

-50150.247036455425   -0.005697823509    0.000000000000
-0.005697823509   -117731.930676955395    0.000000000000
 0.000000000000    0.000000000000   -93357.095532472988

-50150.251719415020   -0.000200366343    0.000000000000
-0.000200366343   -117731.938978023070    0.000000000000
 0.000000000000    0.000000000000   -93357.102514334023

-50150.246973244088    0.005123357595    0.000000000000
 0.005123357595   -117731.930564905415    0.000000000000
 0.000000000000    0.000000000000   -93357.095397573037

-50150.246889328555   -0.005325176271    0.000000000000
-0.005325176271   -117731.930416155432    0.000000000000
 0.000000000000    0.000000000000   -93357.095237905742

-50150.252119731238    0.000655594596    0.000000000000
 0.000655594596   -117731.939687632883    0.000000000000
 0.000000000000    0.000000000000   -93357.103016078428

-50150.248109982385    0.006609325869    0.000000000000
 0.006609325869   -117731.932579910135    0.000000000000
 0.000000000000    0.000000000000   -93357.096994161766

-50150.245827283994   -0.008219717630    0.000000000000
-0.008219717630   -117731.928533568032    0.000000000000
 0.000000000000    0.000000000000   -93357.093552459337

-50150.250532966369   -0.003030632248    0.000000000000
-0.003030632248   -117731.936874969688    0.000000000000
 0.000000000000    0.000000000000   -93357.100551174532

-50150.248136536975   -0.005854232378    0.000000000000
-0.005854232378   -117731.932627018818    0.000000000000
 0.000000000000    0.000000000000   -93357.097052317185

-50150.248523710492   -0.000391645083    0.000000000000
-0.000391645083   -117731.933313332775    0.000000000000
 0.000000000000    0.000000000000   -93357.097740436046

-50150.249651061757    0.001473078933    0.000000000000
 0.001473078933   -117731.935311700174    0.000000000000
 0.000000000000    0.000000000000   -93357.099512061235

-50150.249304378995   -0.000495268454    0.000000000000
-0.000495268454   -117731.934697163524    0.000000000000
 0.000000000000    0.000000000000   -93357.099014646839

-50150.249710820877    0.000458465812    0.000000000000
 0.000458465812   -117731.935417630521    0.000000000000
 0.000000000000    0.000000000000   -93357.099583779054

-50150.249932300656   -0.000222636498    0.000000000000
-0.000222636498   -117731.935810229741    0.000000000000
 0.000000000000    0.000000000000   -93357.099827171347

-50150.250113790367   -0.000006700349    0.000000000000
-0.000006700349   -117731.936131941518    0.000000000000
 0.000000000000    0.000000000000   -93357.099978282451

-50150.250266307565   -0.000311280668    0.000000000000
-0.000311280668   -117731.936402296007    0.000000000000
 0.000000000000    0.000000000000   -93357.100073208523

-50150.250542252958   -0.000362472756    0.000000000000
-0.000362472756   -117731.936891441816    0.000000000000
 0.000000000000    0.000000000000   -93357.100354235517

-50150.250897996972   -0.000239613914    0.000000000000
-0.000239613914   -117731.937522040404    0.000000000000
 0.000000000000    0.000000000000   -93357.100781035741

-50150.250625686276   -0.000659636850    0.000000000000
-0.000659636850   -117731.937039337165    0.000000000000
 0.000000000000    0.000000000000   -93357.100431252591

-50150.250578036161   -0.000848379824    0.000000000000
-0.000848379824   -117731.936954871737    0.000000000000
 0.000000000000    0.000000000000   -93357.100388874460

-50150.250457776252   -0.000707204934    0.000000000000
-0.000707204934   -117731.936741696787    0.000000000000
 0.000000000000    0.000000000000   -93357.100258482111

-50150.250331938216   -0.000334318712    0.000000000000
-0.000334318712   -117731.936518634044    0.000000000000
 0.000000000000    0.000000000000   -93357.100131398067

-50150.250256752413    0.000181884746    0.000000000000
 0.000181884746   -117731.936385358495    0.000000000000
 0.000000000000    0.000000000000   -93357.100090518608

-50150.250275154918    0.000736981413    0.000000000000
 0.000736981413   -117731.936417979479    0.000000000000
 0.000000000000    0.000000000000   -93357.100196894899

-50150.250283270958    0.000989323361    0.000000000000
 0.000989323361   -117731.936432366478    0.000000000000
 0.000000000000    0.000000000000   -93357.100286220826

-50150.250264651455    0.000764934757    0.000000000000
 0.000764934757   -117731.936399361526    0.000000000000
 0.000000000000    0.000000000000   -93357.100329296503

-50150.250131566310   -0.000071489775    0.000000000000
-0.000071489775   -117731.936163452381    0.000000000000
 0.000000000000    0.000000000000   -93357.100196378771

-50150.249813630769   -0.001487615826    0.000000000000
-0.001487615826   -117731.935599873585    0.000000000000
 0.000000000000    0.000000000000   -93357.099784535836

-50150.249340908464   -0.003001497404    0.000000000000
-0.003001497404   -117731.934761916360    0.000000000000
 0.000000000000    0.000000000000   -93357.099126459434

-50150.248795903462   -0.003927672689    0.000000000000
-0.003927672689   -117731.933795829187    0.000000000000
 0.000000000000    0.000000000000   -93357.098320755947

-50150.248327160291   -0.003833804936    0.000000000000
-0.003833804936   -117731.932964925363    0.000000000000
 0.000000000000    0.000000000000   -93357.097586391625

-50150.247863069300   -0.002744610846    0.000000000000
-0.002744610846   -117731.932142268284    0.000000000000
 0.000000000000    0.000000000000   -93357.096840572151

-50150.247025327531   -0.000900182129    0.000000000000
-0.000900182129   -117731.930657270204    0.000000000000
 0.000000000000    0.000000000000   -93357.095541970761

-50150.246368315275    0.001125190517    0.000000000000
 0.001125190517   -117731.929492636860    0.000000000000
 0.000000000000    0.000000000000   -93357.094544779437

-50150.247467014917    0.002708264587    0.000000000000
 0.002708264587   -117731.931440213928    0.000000000000
 0.000000000000    0.000000000000   -93357.096189994612

-50150.249918015295    0.003967320009    0.000000000000
 0.003967320009   -117731.935784905858    0.000000000000
 0.000000000000    0.000000000000   -93357.099703840329

-50150.251183937748    0.003811263878    0.000000000000
 0.003811263878   -117731.938028904202    0.000000000000
 0.000000000000    0.000000000000   -93357.101299547459

-50150.248792904189    0.004049552357    0.000000000000
 0.004049552357   -117731.933790509487    0.000000000000
 0.000000000000    0.000000000000   -93357.097744420738

-50150.246662766942   -0.002917162612    0.000000000000
-0.002917162612   -117731.930014586615    0.000000000000
 0.000000000000    0.000000000000   -93357.094893645248

-50150.243444376807   -0.001476102325    0.000000000000
-0.001476102325   -117731.924309603302    0.000000000000
 0.000000000000    0.000000000000   -93357.090222337501

-50150.247060493079   -0.001154142645    0.000000000000
-0.001154142645   -117731.930719604235    0.000000000000
 0.000000000000    0.000000000000   -93357.095476361181

-50150.248564390968    0.002626052162    0.000000000000
 0.002626052162   -117731.933385443161    0.000000000000
 0.000000000000    0.000000000000   -93357.097996988232

-50150.248193986517    0.001703540356    0.000000000000
 0.001703540356   -117731.932728858184    0.000000000000
 0.000000000000    0.000000000000   -93357.097376475402

-50150.248803077404   -0.001248993395    0.000000000000
-0.001248993395   -117731.933808542628    0.000000000000
 0.000000000000    0.000000000000   -93357.097804335193

-50150.251407125237    0.001448981730    0.000000000000
 0.001448981730   -117731.938424531385    0.000000000000
 0.000000000000    0.000000000000   -93357.101783356207

-50150.252379808015   -0.002716444023    0.000000000000
-0.002716444023   -117731.940148730573    0.000000000000
 0.000000000000    0.000000000000   -93357.103620796639

-50150.249341316070   -0.002622610184    0.000000000000
-0.002622610184   -117731.934762633100    0.000000000000
 0.000000000000    0.000000000000   -93357.098757434040

-50150.252351811389   -0.001600611512    0.000000000000
-0.001600611512   -117731.940099095969    0.000000000000
 0.000000000000    0.000000000000   -93357.103165657027

-50150.250871616387    0.002390948771    0.000000000000
 0.002390948771   -117731.937475274477    0.000000000000
 0.000000000000    0.000000000000   -93357.100793308971

-50150.250763838500   -0.002772716802    0.000000000000
-0.002772716802   -117731.937284225438    0.000000000000
 0.000000000000    0.000000000000   -93357.100505053255

-50150.253476114798    0.000139432276    0.000000000000
 0.000139432276   -117731.942092057725    0.000000000000
 0.000000000000    0.000000000000   -93357.104621965598

-50150.250438156632    0.003559445266    0.000000000000
 0.003559445266   -117731.936706915498    0.000000000000
 0.000000000000    0.000000000000   -93357.100208818723

-50150.250467423459   -0.003692913734    0.000000000000
-0.003692913734   -117731.936758795098    0.000000000000
 0.000000000000    0.000000000000   -93357.100357179719

-50150.253111995502   -0.000856158608    0.000000000000
-0.000856158608   -117731.941446613680    0.000000000000
 0.000000000000    0.000000000000   -93357.104378113683

-50150.249115721184    0.001896533993    0.000000000000
 0.001896533993   -117731.934362740896    0.000000000000
 0.000000000000    0.000000000000   -93357.098458551351

-50150.248457262816   -0.005745026784    0.000000000000
-0.005745026784   -117731.933195543577    0.000000000000
 0.000000000000    0.000000000000   -93357.097521788426

-50150.251270464294   -0.002020795074    0.000000000000
-0.002020795074   -117731.938182278609    0.000000000000
 0.000000000000    0.000000000000   -93357.101767619271

-50150.247941972884    0.001977255218    0.000000000000
 0.001977255218   -117731.932282131471    0.000000000000
 0.000000000000    0.000000000000   -93357.096824518521

-50150.247970273056   -0.004802632098    0.000000000000
-0.004802632098   -117731.932332296259    0.000000000000
 0.000000000000    0.000000000000   -93357.096877387652

-50150.251199310296   -0.000698810461    0.000000000000
-0.000698810461   -117731.938056149826    0.000000000000
 0.000000000000    0.000000000000   -93357.101695849560

-50150.247958810862    0.003278030636    0.000000000000
 0.003278030636   -117731.932311978599    0.000000000000
 0.000000000000    0.000000000000   -93357.096840652768

-50150.247844618636   -0.003700783088    0.000000000000
-0.003700783088   -117731.932109558824    0.000000000000
 0.000000000000    0.000000000000   -93357.096652870649

-50150.251072596082    0.000305351634    0.000000000000
 0.000305351634   -117731.937831533622    0.000000000000
 0.000000000000    0.000000000000   -93357.101461190832

-50150.248166363221    0.004326281124    0.000000000000
 0.004326281124   -117731.932679889491    0.000000000000
 0.000000000000    0.000000000000   -93357.097114692020

-50150.247310393141   -0.003534462735    0.000000000000
-0.003534462735   -117731.931162579625    0.000000000000
 0.000000000000    0.000000000000   -93357.095834440130

-50150.248040555569   -0.003331089194    0.000000000000
-0.003331089194   -117731.932456878407    0.000000000000
 0.000000000000    0.000000000000   -93357.096927076709

-50150.245927053656   -0.000710186094    0.000000000000
-0.000710186094   -117731.928710444059    0.000000000000
 0.000000000000    0.000000000000   -93357.093785024568

-50150.247999215149   -0.001674976016    0.000000000000
-0.001674976016   -117731.932383602471    0.000000000000
 0.000000000000    0.000000000000   -93357.096988611695

-50150.250120295626    0.000962381558    0.000000000000
 0.000962381558   -117731.936143473707    0.000000000000
 0.000000000000    0.000000000000   -93357.100210414224

-50150.249318783113    0.000187793981    0.000000000000
 0.000187793981   -117731.934722696446    0.000000000000
 0.000000000000    0.000000000000   -93357.099010880323

-50150.250059816994    0.000057333751    0.000000000000
 0.000057333751   -117731.936036267944    0.000000000000
 0.000000000000    0.000000000000   -93357.100058487660

-50150.250016831626   -0.000102946293    0.000000000000
-0.000102946293   -117731.935960070739    0.000000000000
 0.000000000000    0.000000000000   -93357.099887945384

-50150.250367242763   -0.000351241459    0.000000000000
-0.000351241459   -117731.936581216054    0.000000000000
 0.000000000000    0.000000000000   -93357.100281079896

-50150.250384026032   -0.000580286425    0.000000000000
-0.000580286425   -117731.936610965829    0.000000000000
 0.000000000000    0.000000000000   -93357.100179819026

-50150.250564237729   -0.000811566480    0.000000000000
-0.000811566480   -117731.936930412572    0.000000000000
 0.000000000000    0.000000000000   -93357.100414135100

-50150.250540961948   -0.000806520743    0.000000000000
-0.000806520743   -117731.936889153556    0.000000000000
 0.000000000000    0.000000000000   -93357.100408250815

-50150.250646657107   -0.000621722691    0.000000000000
-0.000621722691   -117731.937076511094    0.000000000000
 0.000000000000    0.000000000000   -93357.100605292202

-50150.250625400055   -0.000216404930    0.000000000000
-0.000216404930   -117731.937038830714    0.000000000000
 0.000000000000    0.000000000000   -93357.100623920778

-50150.250510030855    0.000313683152    0.000000000000
 0.000313683152   -117731.936834325214    0.000000000000
 0.000000000000    0.000000000000   -93357.100515815240

-50150.250208212521    0.000607975943    0.000000000000
 0.000607975943   -117731.936299316178    0.000000000000
 0.000000000000    0.000000000000   -93357.100133547108

-50150.249850235035    0.000588674609    0.000000000000
 0.000588674609   -117731.935664758334    0.000000000000
 0.000000000000    0.000000000000   -93357.099663206740

-50150.249342397023   -0.000094017619    0.000000000000
-0.000094017619   -117731.934764554564    0.000000000000
 0.000000000000    0.000000000000   -93357.098955162175

-50150.248788424622   -0.001315355503    0.000000000000
-0.001315355503   -117731.933782571927    0.000000000000
 0.000000000000    0.000000000000   -93357.098163361967

-50150.248491365426   -0.002664772163    0.000000000000
-0.002664772163   -117731.933255998651    0.000000000000
 0.000000000000    0.000000000000   -93357.097743590653

-50150.248639554316   -0.003697136093    0.000000000000
-0.003697136093   -117731.933518681049    0.000000000000
 0.000000000000    0.000000000000   -93357.097969918526

-50150.249050551065   -0.004063958127    0.000000000000
-0.004063958127   -117731.934247221914    0.000000000000
 0.000000000000    0.000000000000   -93357.098537579761

-50150.249308863444   -0.003754588902    0.000000000000
-0.003754588902   -117731.934705111300    0.000000000000
 0.000000000000    0.000000000000   -93357.098816572819

-50150.249352954263   -0.002766940457    0.000000000000
-0.002766940457   -117731.934783267454    0.000000000000
 0.000000000000    0.000000000000   -93357.098803922519

-50150.249347592828   -0.000441286054    0.000000000000
-0.000441286054   -117731.934773764035    0.000000000000
 0.000000000000    0.000000000000   -93357.098823057211

-50150.249295664173    0.003647504483    0.000000000000
 0.003647504483   -117731.934681713872    0.000000000000
 0.000000000000    0.000000000000   -93357.098784016169

-50150.249801137252    0.006338708336    0.000000000000
 0.006338708336   -117731.935577724711    0.000000000000
 0.000000000000    0.000000000000   -93357.099548394108

-50150.249255900155    0.003733796918    0.000000000000
 0.003733796918   -117731.934611227436    0.000000000000
 0.000000000000    0.000000000000   -93357.098822586297

-50150.248255833285   -0.000954961539    0.000000000000
-0.000954961539   -117731.932838488676    0.000000000000
 0.000000000000    0.000000000000   -93357.097286444317

-50150.244431806226   -0.002442890857    0.000000000000
-0.002442890857   -117731.926059941092    0.000000000000
 0.000000000000    0.000000000000   -93357.091808989106

-50150.244236260856   -0.004748534473    0.000000000000
-0.004748534473   -117731.925713312157    0.000000000000
 0.000000000000    0.000000000000   -93357.091368573878

-50150.245279353192   -0.000507663397    0.000000000000
-0.000507663397   -117731.927562321027    0.000000000000
 0.000000000000    0.000000000000   -93357.093138860291

-50150.248672012218    0.002478091454    0.000000000000
 0.002478091454   -117731.933576215772    0.000000000000
 0.000000000000    0.000000000000   -93357.098062990466

-50150.249970934390    0.000498201737    0.000000000000
 0.000498201737   -117731.935878712320    0.000000000000
 0.000000000000    0.000000000000   -93357.099945837530

-50150.249748551818   -0.002446334820    0.000000000000
-0.002446334820   -117731.935484509930    0.000000000000
 0.000000000000    0.000000000000   -93357.099273898071

-50150.253765674810   -0.000983880842    0.000000000000
-0.000983880842   -117731.942605344928    0.000000000000
 0.000000000000    0.000000000000   -93357.105296792186

-50150.252341428044    0.001100717559    0.000000000000
 0.001100717559   -117731.940080696630    0.000000000000
 0.000000000000    0.000000000000   -93357.103302744305

-50150.251439176478    0.000656810529    0.000000000000
 0.000656810529   -117731.938481345613    0.000000000000
 0.000000000000    0.000000000000   -93357.101578161048

-50150.249592683038   -0.000050315038    0.000000000000
-0.000050315038   -117731.935208212482    0.000000000000
 0.000000000000    0.000000000000   -93357.098646059589

-50150.251645470569    0.000876284716    0.000000000000
 0.000876284716   -117731.938847025900    0.000000000000
 0.000000000000    0.000000000000   -93357.101778796132

-50150.252114375682   -0.001383402998    0.000000000000
-0.001383402998   -117731.939678217532    0.000000000000
 0.000000000000    0.000000000000   -93357.102624190491

-50150.248962911661   -0.000220242227    0.000000000000
-0.000220242227   -117731.934091868301    0.000000000000
 0.000000000000    0.000000000000   -93357.098046639818

-50150.250878529478   -0.000041920942    0.000000000000
-0.000041920942   -117731.937487532370    0.000000000000
 0.000000000000    0.000000000000   -93357.100994793000

-50150.250194539665   -0.004269448661    0.000000000000
-0.004269448661   -117731.936275077649    0.000000000000
 0.000000000000    0.000000000000   -93357.100035483134

-50150.247084306677   -0.002791507045    0.000000000000
-0.002791507045   -117731.930761815398    0.000000000000
 0.000000000000    0.000000000000   -93357.095433830735

-50150.249943334151   -0.000784846425    0.000000000000
-0.000784846425   -117731.935829786758    0.000000000000
 0.000000000000    0.000000000000   -93357.099728923466

-50150.250162164935   -0.003462148121    0.000000000000
-0.003462148121   -117731.936217690221    0.000000000000
 0.000000000000    0.000000000000   -93357.100058720913

-50150.247582087322   -0.001196033776    0.000000000000
-0.001196033776   -117731.931644191776    0.000000000000
 0.000000000000    0.000000000000   -93357.096196953717

-50150.250563523521    0.000847633343    0.000000000000
 0.000847633343   -117731.936929146992    0.000000000000
 0.000000000000    0.000000000000   -93357.100643932688

-50150.250480934134   -0.002261451092    0.000000000000
-0.002261451092   -117731.936782747114    0.000000000000
 0.000000000000    0.000000000000   -93357.100514206279

-50150.247474347758   -0.000372669901    0.000000000000
-0.000372669901   -117731.931453210404    0.000000000000
 0.000000000000    0.000000000000   -93357.096022953032

-50150.250278384083    0.001635182189    0.000000000000
 0.001635182189   -117731.936423702908    0.000000000000
 0.000000000000    0.000000000000   -93357.100228208132

-50150.249693835707   -0.001721291323    0.000000000000
-0.001721291323   -117731.935387520585    0.000000000000
 0.000000000000    0.000000000000   -93357.099380455853

-50150.245470967122   -0.001834304618    0.000000000000
-0.001834304618   -117731.927901977440    0.000000000000
 0.000000000000    0.000000000000   -93357.093104820931

-50150.246991159838   -0.001896859280    0.000000000000
-0.001896859280   -117731.930596703183    0.000000000000
 0.000000000000    0.000000000000   -93357.095408384412

-50150.248730421852   -0.003215523113    0.000000000000
-0.003215523113   -117731.933679753289    0.000000000000
 0.000000000000    0.000000000000   -93357.098027044951

-50150.247672831669   -0.001573654522    0.000000000000
-0.001573654522   -117731.931805048851    0.000000000000
 0.000000000000    0.000000000000   -93357.096492410405

-50150.249900392482    0.000839810647    0.000000000000
 0.000839810647   -117731.935753668906    0.000000000000
 0.000000000000    0.000000000000   -93357.099856384026

-50150.249833038259   -0.000031874249    0.000000000000
-0.000031874249   -117731.935634275433    0.000000000000
 0.000000000000    0.000000000000   -93357.099736994307

-50150.250110741552    0.000105811580    0.000000000000
 0.000105811580   -117731.936126537577    0.000000000000
 0.000000000000    0.000000000000   -93357.100072237037

-50150.250397142801   -0.000414019304    0.000000000000
-0.000414019304   -117731.936634217680    0.000000000000
 0.000000000000    0.000000000000   -93357.100377657291

-50150.250632057578   -0.000575882642    0.000000000000
-0.000575882642   -117731.937050631794    0.000000000000
 0.000000000000    0.000000000000   -93357.100602430917

-50150.250640080645   -0.000569235184    0.000000000000
-0.000569235184   -117731.937064853861    0.000000000000
 0.000000000000    0.000000000000   -93357.100662365076

-50150.250857468818   -0.000502888290    0.000000000000
-0.000502888290   -117731.937450200625    0.000000000000
 0.000000000000    0.000000000000   -93357.100995916058

-50150.250691796718   -0.000299758329    0.000000000000
-0.000299758329   -117731.937156527056    0.000000000000
 0.000000000000    0.000000000000   -93357.100779249988

-50150.250390038360   -0.000127586784    0.000000000000
-0.000127586784   -117731.936621624234    0.000000000000
 0.000000000000    0.000000000000   -93357.100366120183

-50150.249857153067   -0.000179051088    0.000000000000
-0.000179051088   -117731.935677021058    0.000000000000
 0.000000000000    0.000000000000   -93357.099609773097

-50150.248937646284   -0.000745228783    0.000000000000
-0.000745228783   -117731.934047084753    0.000000000000
 0.000000000000    0.000000000000   -93357.098266173387

-50150.248125721002   -0.001553508441    0.000000000000
-0.001553508441   -117731.932607849492    0.000000000000
 0.000000000000    0.000000000000   -93357.097067617302

-50150.247794420320   -0.002252371031    0.000000000000
-0.002252371031   -117731.932020579043    0.000000000000
 0.000000000000    0.000000000000   -93357.096567411165

-50150.248084959145   -0.002638816502    0.000000000000
-0.002638816502   -117731.932535593878    0.000000000000
 0.000000000000    0.000000000000   -93357.096976018351

-50150.248872449803   -0.002903848854    0.000000000000
-0.002903848854   -117731.933931515596    0.000000000000
 0.000000000000    0.000000000000   -93357.098112676569

-50150.249798256642   -0.003060755669    0.000000000000
-0.003060755669   -117731.935572619361    0.000000000000
 0.000000000000    0.000000000000   -93357.099450728681

-50150.250709647073   -0.002568102572    0.000000000000
-0.002568102572   -117731.937188168449    0.000000000000
 0.000000000000    0.000000000000   -93357.100758741377

-50150.251616037334   -0.001040235217    0.000000000000
-0.001040235217   -117731.938794854199    0.000000000000
 0.000000000000    0.000000000000   -93357.102064490202

-50150.252156896750    0.001270228402    0.000000000000
 0.001270228402   -117731.939753592611    0.000000000000
 0.000000000000    0.000000000000   -93357.102906003085

-50150.250443765886    0.003196725957    0.000000000000
 0.003196725957   -117731.936716862212    0.000000000000
 0.000000000000    0.000000000000   -93357.100503511421

-50150.246249849712    0.002553596136    0.000000000000
 0.002553596136   -117731.929282641984    0.000000000000
 0.000000000000    0.000000000000   -93357.094461444867

-50150.243100940206   -0.001645654781    0.000000000000
-0.001645654781   -117731.923700822066    0.000000000000
 0.000000000000    0.000000000000   -93357.089921731575

-50150.246654245675   -0.001256130607    0.000000000000
-0.001256130607   -117731.929999482774    0.000000000000
 0.000000000000    0.000000000000   -93357.095064392721

-50150.249664590461   -0.000465336378    0.000000000000
-0.000465336378   -117731.935335680944    0.000000000000
 0.000000000000    0.000000000000   -93357.099472031114

-50150.250815410480   -0.000511072585    0.000000000000
-0.000511072585   -117731.937375648078    0.000000000000
 0.000000000000    0.000000000000   -93357.101192153292

-50150.251496475903   -0.002162927085    0.000000000000
-0.002162927085   -117731.938582916962    0.000000000000
 0.000000000000    0.000000000000   -93357.101946474257

-50150.250641236264    0.000593160718    0.000000000000
 0.000593160718   -117731.937066901548    0.000000000000
 0.000000000000    0.000000000000   -93357.100558329083

-50150.249863793862    0.000438697995    0.000000000000
 0.000438697995   -117731.935688791316    0.000000000000
 0.000000000000    0.000000000000   -93357.099369210089

-50150.250210553313   -0.001613981101    0.000000000000
-0.001613981101   -117731.936303464157    0.000000000000
 0.000000000000    0.000000000000   -93357.099902490110

-50150.249062001378   -0.002026008019    0.000000000000
-0.002026008019   -117731.934267517703    0.000000000000
 0.000000000000    0.000000000000   -93357.098242134220

-50150.247005919948   -0.002951025271    0.000000000000
-0.002951025271   -117731.930622866101    0.000000000000
 0.000000000000    0.000000000000   -93357.095235921675

-50150.249006960745   -0.003251278798    0.000000000000
-0.003251278798   -117731.934169951870    0.000000000000
 0.000000000000    0.000000000000   -93357.098259432489

-50150.249550687113   -0.001706889514    0.000000000000
-0.001706889514   -117731.935133772626    0.000000000000
 0.000000000000    0.000000000000   -93357.099065544971

-50150.248419205127   -0.001496623876    0.000000000000
-0.001496623876   -117731.933128084405    0.000000000000
 0.000000000000    0.000000000000   -93357.097348319265

-50150.250636122953   -0.001508536362    0.000000000000
-0.001508536362   -117731.937057837975    0.000000000000
 0.000000000000    0.000000000000   -93357.100634026094

-50150.250700254401   -0.000407972332    0.000000000000
-0.000407972332   -117731.937171518744    0.000000000000
 0.000000000000    0.000000000000   -93357.100716845904

-50150.248726731981   -0.000910439270    0.000000000000
-0.000910439270   -117731.933673212712    0.000000000000
 0.000000000000    0.000000000000   -93357.097774503520

-50150.250301947577   -0.001296883786    0.000000000000
-0.001296883786   -117731.936465472085    0.000000000000
 0.000000000000    0.000000000000   -93357.100155243548

-50150.249924542914   -0.000245955311    0.000000000000
-0.000245955311   -117731.935796477061    0.000000000000
 0.000000000000    0.000000000000   -93357.099636860468

-50150.247169284790   -0.001616346121    0.000000000000
-0.001616346121   -117731.930912450654    0.000000000000
 0.000000000000    0.000000000000   -93357.095577418630

-50150.247723124950   -0.003308849212    0.000000000000
-0.003308849212   -117731.931894199064    0.000000000000
 0.000000000000    0.000000000000   -93357.096463397567

-50150.247654192048   -0.002089030685    0.000000000000
-0.002089030685   -117731.931772007869    0.000000000000
 0.000000000000    0.000000000000   -93357.096433750339

-50150.249848146988   -0.000033510631    0.000000000000
-0.000033510631   -117731.935661057360    0.000000000000
 0.000000000000    0.000000000000   -93357.099736797871

-50150.250018072198    0.000067507364    0.000000000000
 0.000067507364   -117731.935962270058    0.000000000000
 0.000000000000    0.000000000000   -93357.099952587916

-50150.250428709398   -0.000242254581    0.000000000000
-0.000242254581   -117731.936690173476    0.000000000000
 0.000000000000    0.000000000000   -93357.100473809362

-50150.250682786267   -0.000336799628    0.000000000000
-0.000336799628   -117731.937140555048    0.000000000000
 0.000000000000    0.000000000000   -93357.100796929444

-50150.250523769420   -0.000539338080    0.000000000000
-0.000539338080   -117731.936858678615    0.000000000000
 0.000000000000    0.000000000000   -93357.100564955064

-50150.250657328121   -0.000744491972    0.000000000000
-0.000744491972   -117731.937095427376    0.000000000000
 0.000000000000    0.000000000000   -93357.100751591512

-50150.249877670511   -0.001153766199    0.000000000000
-0.001153766199   -117731.935713390369    0.000000000000
 0.000000000000    0.000000000000   -93357.099584792464

-50150.248905072716   -0.001908631774    0.000000000000
-0.001908631774   -117731.933989343641    0.000000000000
 0.000000000000    0.000000000000   -93357.098125444361

-50150.248048731009   -0.002317854608    0.000000000000
-0.002317854608   -117731.932471374763    0.000000000000
 0.000000000000    0.000000000000   -93357.096832322641

-50150.247688378317   -0.002211715145    0.000000000000
-0.002211715145   -117731.931832606162    0.000000000000
 0.000000000000    0.000000000000   -93357.096269265996

-50150.248015177029   -0.001855217373    0.000000000000
-0.001855217373   -117731.932411896123    0.000000000000
 0.000000000000    0.000000000000   -93357.096716580607

-50150.248627860223   -0.001561545956    0.000000000000
-0.001561545956   -117731.933497950609    0.000000000000
 0.000000000000    0.000000000000   -93357.097584079835

-50150.249492550764   -0.001365668804    0.000000000000
-0.001365668804   -117731.935030718581    0.000000000000
 0.000000000000    0.000000000000   -93357.098858196245

-50150.250831368969   -0.000952218641    0.000000000000
-0.000952218641   -117731.937403935168    0.000000000000
 0.000000000000    0.000000000000   -93357.100896981428

-50150.252144575446   -0.000246900942    0.000000000000
-0.000246900942   -117731.939731751962    0.000000000000
 0.000000000000    0.000000000000   -93357.102910409696

-50150.252445289021   -0.000086781220    0.000000000000
-0.000086781220   -117731.940264802935    0.000000000000
 0.000000000000    0.000000000000   -93357.103363940972

-50150.250679882207   -0.001682098853    0.000000000000
-0.001682098853   -117731.937135406886    0.000000000000
 0.000000000000    0.000000000000   -93357.100781387286

-50150.247713253841   -0.003619021062    0.000000000000
-0.003619021062   -117731.931876701361    0.000000000000
 0.000000000000    0.000000000000   -93357.096521614367

-50150.245609183366   -0.004456778257    0.000000000000
-0.004456778257   -117731.928146983337    0.000000000000
 0.000000000000    0.000000000000   -93357.093512201129

-50150.246757640234   -0.005324997832    0.000000000000
-0.005324997832   -117731.930182760887    0.000000000000
 0.000000000000    0.000000000000   -93357.095120517770

-50150.250839277462   -0.002871594952    0.000000000000
-0.002871594952   -117731.937417955065    0.000000000000
 0.000000000000    0.000000000000   -93357.101269900915

-50150.251738501436   -0.001463821211    0.000000000000
-0.001463821211   -117731.939011938317    0.000000000000
 0.000000000000    0.000000000000   -93357.102648689412

-50150.249972851634   -0.001835662654    0.000000000000
-0.001835662654   -117731.935882111313    0.000000000000
 0.000000000000    0.000000000000   -93357.099968280629

-50150.248039231192   -0.002499642764    0.000000000000
-0.002499642764   -117731.932454534966    0.000000000000
 0.000000000000    0.000000000000   -93357.096808561706

-50150.247352336330   -0.003558838507    0.000000000000
-0.003558838507   -117731.931236930875    0.000000000000
 0.000000000000    0.000000000000   -93357.095753019283

-50150.247440590341   -0.003511341893    0.000000000000
-0.003511341893   -117731.931393371822    0.000000000000
 0.000000000000    0.000000000000   -93357.095885718169

-50150.247956718049   -0.001514188145    0.000000000000
-0.001514188145   -117731.932308270552    0.000000000000
 0.000000000000    0.000000000000   -93357.096636907358

-50150.248857812512   -0.001235844174    0.000000000000
-0.001235844174   -117731.933905568774    0.000000000000
 0.000000000000    0.000000000000   -93357.097943604007

-50150.249945338444   -0.001266436495    0.000000000000
-0.001266436495   -117731.935833339172    0.000000000000
 0.000000000000    0.000000000000   -93357.099521795913

-50150.250410850138   -0.000064728131    0.000000000000
-0.000064728131   -117731.936658514562    0.000000000000
 0.000000000000    0.000000000000   -93357.100180500376

-50150.250264110895   -0.000974134848    0.000000000000
-0.000974134848   -117731.936398401522    0.000000000000
 0.000000000000    0.000000000000   -93357.099944493079

-50150.250156414280   -0.001864887204    0.000000000000
-0.001864887204   -117731.936207496226    0.000000000000
 0.000000000000    0.000000000000   -93357.099797237330

-50150.249830249690   -0.000832047221    0.000000000000
-0.000832047221   -117731.935629330590    0.000000000000
 0.000000000000    0.000000000000   -93357.099358092542

-50150.249061021139   -0.001819528008    0.000000000000
-0.001819528008   -117731.934265780612    0.000000000000
 0.000000000000    0.000000000000   -93357.098279820100

-50150.248055890006   -0.003419817520    0.000000000000
-0.003419817520   -117731.932484064717    0.000000000000
 0.000000000000    0.000000000000   -93357.096857361670

-50150.247360817739   -0.002677839481    0.000000000000
-0.002677839481   -117731.931251966060    0.000000000000
 0.000000000000    0.000000000000   -93357.095902673842

-50150.248056374658   -0.002027873516    0.000000000000
-0.002027873516   -117731.932484924822    0.000000000000
 0.000000000000    0.000000000000   -93357.097006459822

-50150.249701132685   -0.000784242487    0.000000000000
-0.000784242487   -117731.935400456467    0.000000000000
 0.000000000000    0.000000000000   -93357.099446577369

-50150.250417697789   -0.000417904397    0.000000000000
-0.000417904397   -117731.936670654206    0.000000000000
 0.000000000000    0.000000000000   -93357.100476609834

-50150.250256557447   -0.001025400649    0.000000000000
-0.001025400649   -117731.936385013163    0.000000000000
 0.000000000000    0.000000000000   -93357.100165574520

-50150.249532776477   -0.002014913208    0.000000000000
-0.002014913208   -117731.935102023985    0.000000000000
 0.000000000000    0.000000000000   -93357.099045660987

-50150.248759973743   -0.002830747570    0.000000000000
-0.002830747570   -117731.933732137782    0.000000000000
 0.000000000000    0.000000000000   -93357.097845615805

-50150.248275494676   -0.003099815093    0.000000000000
-0.003099815093   -117731.932873340076    0.000000000000
 0.000000000000    0.000000000000   -93357.097074497273

-50150.248328003836   -0.002555370704    0.000000000000
-0.002555370704   -117731.932966418753    0.000000000000
 0.000000000000    0.000000000000   -93357.097103633496

-50150.248542190799   -0.001510469801    0.000000000000
-0.001510469801   -117731.933346090882    0.000000000000
 0.000000000000    0.000000000000   -93357.097373708399

-50150.248844676411   -0.000820696411    0.000000000000
-0.000820696411   -117731.933882282887    0.000000000000
 0.000000000000    0.000000000000   -93357.097789380350

-50150.249470677074   -0.000186108609    0.000000000000
-0.000186108609   -117731.934991944421    0.000000000000
 0.000000000000    0.000000000000   -93357.098723898365

-50150.250340305123    0.000648946992    0.000000000000
 0.000648946992   -117731.936533465036    0.000000000000
 0.000000000000    0.000000000000   -93357.100072983070

-50150.251035815389    0.000739171766    0.000000000000
 0.000739171766   -117731.937766341100    0.000000000000
 0.000000000000    0.000000000000   -93357.101217016825

-50150.250907840644   -0.000510796711    0.000000000000
-0.000510796711   -117731.937539491177    0.000000000000
 0.000000000000    0.000000000000   -93357.101171105809

-50150.249706183058   -0.003117971745    0.000000000000
-0.003117971745   -117731.935409408572    0.000000000000
 0.000000000000    0.000000000000   -93357.099489516128

-50150.248055210344   -0.005353111659    0.000000000000
-0.005353111659   -117731.932482860066    0.000000000000
 0.000000000000    0.000000000000   -93357.097036907158

-50150.248114450958   -0.005930385537    0.000000000000
-0.005930385537   -117731.932587871575    0.000000000000
 0.000000000000    0.000000000000   -93357.097266733108

-50150.247797925360   -0.004734010258    0.000000000000
-0.004734010258   -117731.932026792172    0.000000000000
 0.000000000000    0.000000000000   -93357.096751935096

-50150.246978373412   -0.004298297328    0.000000000000
-0.004298297328   -117731.930574037367    0.000000000000
 0.000000000000    0.000000000000   -93357.095402859894

-50150.247109332347   -0.002834528212    0.000000000000
-0.002834528212   -117731.930806177668    0.000000000000
 0.000000000000    0.000000000000   -93357.095467825537

-50150.248292655197   -0.001394325428    0.000000000000
-0.001394325428   -117731.932903759589    0.000000000000
 0.000000000000    0.000000000000   -93357.097131250877

-50150.248998520023   -0.000162704203    0.000000000000
-0.000162704203   -117731.934154989605    0.000000000000
 0.000000000000    0.000000000000   -93357.098096853922

-50150.249818800949    0.000574369963    0.000000000000
 0.000574369963   -117731.935609035907    0.000000000000
 0.000000000000    0.000000000000   -93357.099256726287

-50150.250533071470   -0.000128673646    0.000000000000
-0.000128673646   -117731.936875166211    0.000000000000
 0.000000000000    0.000000000000   -93357.100282086278

-50150.250022610351   -0.001116545916    0.000000000000
-0.001116545916   -117731.935970312348    0.000000000000
 0.000000000000    0.000000000000   -93357.099504187339

-50150.249796923461   -0.001388761317    0.000000000000
-0.001388761317   -117731.935570255271    0.000000000000
 0.000000000000    0.000000000000   -93357.099188304433

-50150.249855755719   -0.002056927164    0.000000000000
-0.002056927164   -117731.935674542634    0.000000000000
 0.000000000000    0.000000000000   -93357.099332482729

-50150.248757707282   -0.002948462194    0.000000000000
-0.002948462194   -117731.933728119868    0.000000000000
 0.000000000000    0.000000000000   -93357.097770546054

-50150.247967629832   -0.003239077610    0.000000000000
-0.003239077610   -117731.932327612813    0.000000000000
 0.000000000000    0.000000000000   -93357.096678507733

-50150.248701851320   -0.002743523031    0.000000000000
-0.002743523031   -117731.933629109291    0.000000000000
 0.000000000000    0.000000000000   -93357.097866720695

-50150.250006498944   -0.000877484863    0.000000000000
-0.000877484863   -117731.935941754607    0.000000000000
 0.000000000000    0.000000000000   -93357.099837939764

-50150.249149394920   -0.002289855973    0.000000000000
-0.002289855973   -117731.934422434089    0.000000000000
 0.000000000000    0.000000000000   -93357.098489693366

-50150.248607215144   -0.003463430909    0.000000000000
-0.003463430909   -117731.933461354522    0.000000000000
 0.000000000000    0.000000000000   -93357.097603684480

-50150.248500545917   -0.003360496235    0.000000000000
-0.003360496235   -117731.933272270180    0.000000000000
 0.000000000000    0.000000000000   -93357.097369270690

-50150.248980219360   -0.002372538402    0.000000000000
-0.002372538402   -117731.934122549006    0.000000000000
 0.000000000000    0.000000000000   -93357.098017242781

-50150.249518600845   -0.001657472788    0.000000000000
-0.001657472788   -117731.935076894835    0.000000000000
 0.000000000000    0.000000000000   -93357.098764665614

-50150.249466645968   -0.000869445615    0.000000000000
-0.000869445615   -117731.934984798529    0.000000000000
 0.000000000000    0.000000000000   -93357.098657863098

-50150.249712312267    0.000358490727    0.000000000000
 0.000358490727   -117731.935420271635    0.000000000000
 0.000000000000    0.000000000000   -93357.099036539454

-50150.250178502065    0.001000300020    0.000000000000
 0.001000300020   -117731.936246649406    0.000000000000
 0.000000000000    0.000000000000   -93357.099784012549

-50150.249786493077    0.000678724445    0.000000000000
 0.000678724445   -117731.935551766699    0.000000000000
 0.000000000000    0.000000000000   -93357.099283488133

-50150.248937825068   -0.000682971848    0.000000000000
-0.000682971848   -117731.934047401170    0.000000000000
 0.000000000000    0.000000000000   -93357.098154970503

-50150.248110503839   -0.003045235462    0.000000000000
-0.003045235462   -117731.932580875189    0.000000000000
 0.000000000000    0.000000000000   -93357.097104159140

-50150.247674047190   -0.005356907400    0.000000000000
-0.005356907400   -117731.931807203204    0.000000000000
 0.000000000000    0.000000000000   -93357.096606782114

-50150.250983906350   -0.000153039828    0.000000000000
-0.000153039828   -117731.937674324843    0.000000000000
 0.000000000000    0.000000000000   -93357.100856819787

-50150.244561517044    0.006465002169    0.000000000000
 0.006465002169   -117731.926289865136    0.000000000000
 0.000000000000    0.000000000000   -93357.091605962167

-50150.260244341895   -0.020318213871    0.000000000000
-0.020318213871   -117731.954089501334    0.000000000000
 0.000000000000    0.000000000000   -93357.114485928119

-50150.248913215532   -0.000238411639    0.000000000000
-0.000238411639   -117731.934003776129    0.000000000000
 0.000000000000    0.000000000000   -93357.097986214649


TENSORS   nStrain   float
 0.167587261125   -0.000000000506    0.000000000000
-0.000000000506   -0.100000573228    0.000000000000
 0.000000000000    0.000000000000    0.000000000000

 0.167585907496    0.000000055750    0.000000000000
 0.000000055750   -0.099999809182    0.000000000000
 0.000000000000    0.000000000000    0.000000000000

 0.167587259634   -0.000000000564    0.000000000000
-0.000000000564   -0.100000572839    0.000000000000
 0.000000000000    0.000000000000    0.000000000000

 0.167587249077   -0.000000000670    0.000000000000
-0.000000000670   -0.100000566388    0.000000000000
 0.000000000000    0.000000000000    0.000000000000

 0.167587236989    0.000000000410    0.000000000000
 0.000000000410   -0.100000559803    0.000000000000
 0.000000000000    0.000000000000    0.000000000000

 0.167587215444   -0.000000000658    0.000000000000
-0.000000000658   -0.100000547397    0.000000000000
 0.000000000000    0.000000000000    0.000000000000

 0.167587189901   -0.000000000008    0.000000000000
-0.000000000008   -0.100000533183    0.000000000000
 0.000000000000    0.000000000000    0.000000000000

 0.167587159950   -0.000000001353    0.000000000000
-0.000000001353   -0.100000516050    0.000000000000
 0.000000000000    0.000000000000    0.000000000000

 0.167587125978   -0.000000000737    0.000000000000
-0.000000000737   -0.100000497078    0.000000000000
 0.000000000000    0.000000000000    0.000000000000

 0.167587083504   -0.000000001333    0.000000000000
-0.000000001333   -0.100000472880    0.000000000000
 0.000000000000    0.000000000000    0.000000000000

 0.167587036323    0.000000000325    0.000000000000
 0.000000000325   -0.100000446353    0.000000000000
 0.000000000000    0.000000000000    0.000000000000

 0.167586995212   -0.000000001003    0.000000000000
-0.000000001003   -0.100000423084    0.000000000000
 0.000000000000    0.000000000000    0.000000000000

 0.167586956098   -0.000000002846    0.000000000000
-0.000000002846   -0.100000401087    0.000000000000
 0.000000000000    0.000000000000    0.000000000000

 0.167586891824   -0.000000002647    0.000000000000
-0.000000002647   -0.100000364673    0.000000000000
 0.000000000000    0.000000000000    0.000000000000

 0.167586811417    0.000000004065    0.000000000000
 0.000000004065   -0.100000319154    0.000000000000
 0.000000000000    0.000000000000    0.000000000000

 0.167586757946    0.000000004509    0.000000000000
 0.000000004509   -0.100000289202    0.000000000000
 0.000000000000    0.000000000000    0.000000000000

 0.167586727228    0.000000000092    0.000000000000
 0.000000000092   -0.100000272675    0.000000000000
 0.000000000000    0.000000000000    0.000000000000

 0.167586641413   -0.000000006060    0.000000000000
-0.000000006060   -0.100000223270    0.000000000000
 0.000000000000    0.000000000000    0.000000000000

 0.167586521481    0.000000010929    0.000000000000
 0.000000010929   -0.100000156410    0.000000000000
 0.000000000000    0.000000000000    0.000000000000

 0.167586421595    0.000000027271    0.000000000000
 0.000000027271   -0.100000099431    0.000000000000
 0.000000000000    0.000000000000    0.000000000000

 0.167586404226    0.000000004291    0.000000000000
 0.000000004291   -0.100000093255    0.000000000000
 0.000000000000    0.000000000000    0.000000000000

 0.167586480414   -0.000000040496    0.000000000000
-0.000000040496   -0.100000132816    0.000000000000
 0.000000000000    0.000000000000    0.000000000000

 0.167586458453   -0.000000032025    0.000000000000
-0.000000032025   -0.100000118942    0.000000000000
 0.000000000000    0.000000000000    0.000000000000

 0.167586159591    0.000000004642    0.000000000000
 0.000000004642   -0.099999950472    0.000000000000
 0.000000000000    0.000000000000    0.000000000000

 0.167585847946    0.000000017909    0.000000000000
 0.000000017909   -0.099999771499    0.000000000000
 0.000000000000    0.000000000000    0.000000000000

 0.167586431055   -0.000000460011    0.000000000000
-0.000000460011   -0.100000106674    0.000000000000
 0.000000000000    0.000000000000    0.000000000000

 0.167585879027    0.000000002623    0.000000000000
 0.000000002623   -0.099999795383    0.000000000000
 0.000000000000    0.000000000000    0.000000000000

 0.167585924875    0.000000037971    0.000000000000
 0.000000037971   -0.099999817846    0.000000000000
 0.000000000000    0.000000000000    0.000000000000

 0.167585863063    0.000000290009    0.000000000000
 0.000000290009   -0.099999781074    0.000000000000
 0.000000000000    0.000000000000    0.000000000000

 0.167586244002   -0.000000074442    0.000000000000
-0.000000074442   -0.099999998210    0.000000000000
 0.000000000000    0.000000000000    0.000000000000

 0.167585926212   -0.000000693363    0.000000000000
-0.000000693363   -0.099999823553    0.000000000000
 0.000000000000    0.000000000000    0.000000000000

 0.167585444741    0.000000044420    0.000000000000
 0.000000044420   -0.099999549965    0.000000000000
 0.000000000000    0.000000000000    0.000000000000

 0.167585885065    0.000000647434    0.000000000000
 0.000000647434   -0.099999796967    0.000000000000
 0.000000000000    0.000000000000    0.000000000000

 0.167586084340   -0.000000028496    0.000000000000
-0.000000028496   -0.099999908293    0.000000000000
 0.000000000000    0.000000000000    0.000000000000

 0.167585679525    0.000000006443    0.000000000000
 0.000000006443   -0.099999682032    0.000000000000
 0.000000000000    0.000000000000    0.000000000000

 0.167586077452    0.000000035975    0.000000000000
 0.000000035975   -0.099999904362    0.000000000000
 0.000000000000    0.000000000000    0.000000000000

 0.167585868321   -0.000000629083    0.000000000000
-0.000000629083   -0.099999786427    0.000000000000
 0.000000000000    0.000000000000    0.000000000000

 0.167585409740   -0.000000000899    0.000000000000
-0.000000000899   -0.099999529754    0.000000000000
 0.000000000000    0.000000000000    0.000000000000

 0.167585842745    0.000000624972    0.000000000000
 0.000000624972   -0.099999772061    0.000000000000
 0.000000000000    0.000000000000    0.000000000000

 0.167586036001   -0.000000038954    0.000000000000
-0.000000038954   -0.099999880985    0.000000000000
 0.000000000000    0.000000000000    0.000000000000

 0.167585658767   -0.000000000321    0.000000000000
-0.000000000321   -0.099999670495    0.000000000000
 0.000000000000    0.000000000000    0.000000000000

 0.167586037961    0.000000034076    0.000000000000
 0.000000034076   -0.099999882109    0.000000000000
 0.000000000000    0.000000000000    0.000000000000

 0.167585870209   -0.000000626582    0.000000000000
-0.000000626582   -0.099999787925    0.000000000000
 0.000000000000    0.000000000000    0.000000000000

 0.167585415819   -0.000000003078    0.000000000000
-0.000000003078   -0.099999533249    0.000000000000
 0.000000000000    0.000000000000    0.000000000000

 0.167585911182    0.000000626407    0.000000000000
 0.000000626407   -0.099999811235    0.000000000000
 0.000000000000    0.000000000000    0.000000000000

 0.167586099851   -0.000000040286    0.000000000000
-0.000000040286   -0.099999917147    0.000000000000
 0.000000000000    0.000000000000    0.000000000000

 0.167585792382    0.000000001131    0.000000000000
 0.000000001131   -0.099999746439    0.000000000000
 0.000000000000    0.000000000000    0.000000000000

 0.167586170743    0.000000032879    0.000000000000
 0.000000032879   -0.099999957246    0.000000000000
 0.000000000000    0.000000000000    0.000000000000

 0.167586084366   -0.000000622901    0.000000000000
-0.000000622901   -0.099999909184    0.000000000000
 0.000000000000    0.000000000000    0.000000000000

 0.167585630216   -0.000000003337    0.000000000000
-0.000000003337   -0.099999654497    0.000000000000
 0.000000000000    0.000000000000    0.000000000000

 0.167586213491    0.000000631755    0.000000000000
 0.000000631755   -0.099999981952    0.000000000000
 0.000000000000    0.000000000000    0.000000000000

 0.167586394533   -0.000000038728    0.000000000000
-0.000000038728   -0.100000083696    0.000000000000
 0.000000000000    0.000000000000    0.000000000000

 0.167586161544    0.000000005992    0.000000000000
 0.000000005992   -0.099999954481    0.000000000000
 0.000000000000    0.000000000000    0.000000000000

 0.167586524031    0.000000036182    0.000000000000
 0.000000036182   -0.100000156789    0.000000000000
 0.000000000000    0.000000000000    0.000000000000

 0.167586480157   -0.000000621820    0.000000000000
-0.000000621820   -0.100000131921    0.000000000000
 0.000000000000    0.000000000000    0.000000000000

 0.167586003359    0.000000000614    0.000000000000
 0.000000000614   -0.099999865123    0.000000000000
 0.000000000000    0.000000000000    0.000000000000

 0.167586595705    0.000000629637    0.000000000000
 0.000000629637   -0.100000196911    0.000000000000
 0.000000000000    0.000000000000    0.000000000000

 0.167586749296   -0.000000034979    0.000000000000
-0.000000034979   -0.100000283863    0.000000000000
 0.000000000000    0.000000000000    0.000000000000

 0.167586497622    0.000000003146    0.000000000000
 0.000000003146   -0.100000143413    0.000000000000
 0.000000000000    0.000000000000    0.000000000000

 0.167586827870    0.000000040281    0.000000000000
 0.000000040281   -0.100000328194    0.000000000000
 0.000000000000    0.000000000000    0.000000000000

 0.167586727030   -0.000000623011    0.000000000000
-0.000000623011   -0.100000270505    0.000000000000
 0.000000000000    0.000000000000    0.000000000000

 0.167586235926    0.000000000129    0.000000000000
 0.000000000129   -0.099999996323    0.000000000000
 0.000000000000    0.000000000000    0.000000000000

 0.167586783745    0.000000618635    0.000000000000
 0.000000618635   -0.100000302982    0.000000000000
 0.000000000000    0.000000000000    0.000000000000

 0.167586914474   -0.000000037722    0.000000000000
-0.000000037722   -0.100000377001    0.000000000000
 0.000000000000    0.000000000000    0.000000000000

 0.167586700959    0.000000006307    0.000000000000
 0.000000006307   -0.100000258676    0.000000000000
 0.000000000000    0.000000000000    0.000000000000

 0.167586999585    0.000000032626    0.000000000000
 0.000000032626   -0.100000425150    0.000000000000
 0.000000000000    0.000000000000    0.000000000000

 0.167586881089   -0.000000616571    0.000000000000
-0.000000616571   -0.100000358378    0.000000000000
 0.000000000000    0.000000000000    0.000000000000

 0.167586446598    0.000000008480    0.000000000000
 0.000000008480   -0.100000115264    0.000000000000
 0.000000000000    0.000000000000    0.000000000000

 0.167586976332    0.000000621826    0.000000000000
 0.000000621826   -0.100000411674    0.000000000000
 0.000000000000    0.000000000000    0.000000000000

 0.167587030168   -0.000000055163    0.000000000000
-0.000000055163   -0.100000442529    0.000000000000
 0.000000000000    0.000000000000    0.000000000000

 0.167586635617    0.000000053266    0.000000000000
 0.000000053266   -0.100000220804    0.000000000000
 0.000000000000    0.000000000000    0.000000000000

 0.167587056704    0.000000114689    0.000000000000
 0.000000114689   -0.100000456659    0.000000000000
 0.000000000000    0.000000000000    0.000000000000

 0.167586991370   -0.000000443671    0.000000000000
-0.000000443671   -0.100000405893    0.000000000000
 0.000000000000    0.000000000000    0.000000000000

 0.167584608172    0.000000000949    0.000000000000
 0.000000000949   -0.099999076837    0.000000000000
 0.000000000000    0.000000000000    0.000000000000

 0.167585908880   -0.000000220860    0.000000000000
-0.000000220860   -0.099999808823    0.000000000000
 0.000000000000    0.000000000000    0.000000000000

 0.167586671956    0.000000059035    0.000000000000
 0.000000059035   -0.100000238853    0.000000000000
 0.000000000000    0.000000000000    0.000000000000

 0.167586863340    0.000000095034    0.000000000000
 0.000000095034   -0.100000355026    0.000000000000
 0.000000000000    0.000000000000    0.000000000000

 0.167586634750    0.000000010667    0.000000000000
 0.000000010667   -0.100000220541    0.000000000000
 0.000000000000    0.000000000000    0.000000000000

 0.167586663158   -0.000000038173    0.000000000000
-0.000000038173   -0.100000239017    0.000000000000
 0.000000000000    0.000000000000    0.000000000000

 0.167586617899   -0.000000023130    0.000000000000
-0.000000023130   -0.100000210326    0.000000000000
 0.000000000000    0.000000000000    0.000000000000

 0.167586438442   -0.000000006939    0.000000000000
-0.000000006939   -0.100000109179    0.000000000000
 0.000000000000    0.000000000000    0.000000000000

 0.167586242723    0.000000011789    0.000000000000
 0.000000011789   -0.099999998452    0.000000000000
 0.000000000000    0.000000000000    0.000000000000

 0.167586085164    0.000000037933    0.000000000000
 0.000000037933   -0.099999911636    0.000000000000
 0.000000000000    0.000000000000    0.000000000000

 0.167586047517    0.000000011752    0.000000000000
 0.000000011752   -0.099999888542    0.000000000000
 0.000000000000    0.000000000000    0.000000000000

 0.167586156515   -0.000000008363    0.000000000000
-0.000000008363   -0.099999954736    0.000000000000
 0.000000000000    0.000000000000    0.000000000000

 0.167585940736   -0.000000008129    0.000000000000
-0.000000008129   -0.099999827720    0.000000000000
 0.000000000000    0.000000000000    0.000000000000

 0.167585714887   -0.000000056640    0.000000000000
-0.000000056640   -0.099999701537    0.000000000000
 0.000000000000    0.000000000000    0.000000000000

 0.167585644352   -0.000000025952    0.000000000000
-0.000000025952   -0.099999660553    0.000000000000
 0.000000000000    0.000000000000    0.000000000000

 0.167585340152    0.000000030796    0.000000000000
 0.000000030796   -0.099999485956    0.000000000000
 0.000000000000    0.000000000000    0.000000000000

 0.167585347959    0.000000022924    0.000000000000
 0.000000022924   -0.099999493465    0.000000000000
 0.000000000000    0.000000000000    0.000000000000

 0.167585427917    0.000000011939    0.000000000000
 0.000000011939   -0.099999540811    0.000000000000
 0.000000000000    0.000000000000    0.000000000000

 0.167585115032   -0.000000016080    0.000000000000
-0.000000016080   -0.099999362109    0.000000000000
 0.000000000000    0.000000000000    0.000000000000

 0.167584905842   -0.000000018517    0.000000000000
-0.000000018517   -0.099999243882    0.000000000000
 0.000000000000    0.000000000000    0.000000000000

 0.167584840324   -0.000000000641    0.000000000000
-0.000000000641   -0.099999206690    0.000000000000
 0.000000000000    0.000000000000    0.000000000000

 0.167584759491    0.000000009116    0.000000000000
 0.000000009116   -0.099999161895    0.000000000000
 0.000000000000    0.000000000000    0.000000000000

 0.167584689105   -0.000000012457    0.000000000000
-0.000000012457   -0.099999121693    0.000000000000
 0.000000000000    0.000000000000    0.000000000000

 0.167584611351   -0.000000021349    0.000000000000
-0.000000021349   -0.099999075203    0.000000000000
 0.000000000000    0.000000000000    0.000000000000

 0.167584574749    0.000000018744    0.000000000000
 0.000000018744   -0.099999062913    0.000000000000
 0.000000000000    0.000000000000    0.000000000000

 0.167584651666    0.000000011101    0.000000000000
 0.000000011101   -0.099999101398    0.000000000000
 0.000000000000    0.000000000000    0.000000000000

 0.167584723547    0.000000017749    0.000000000000
 0.000000017749   -0.099999143182    0.000000000000
 0.000000000000    0.000000000000    0.000000000000

 0.167584781345   -0.000000004200    0.000000000000
-0.000000004200   -0.099999174213    0.000000000000
 0.000000000000    0.000000000000    0.000000000000

 0.167584870933   -0.000000008965    0.000000000000
-0.000000008965   -0.099999224384    0.000000000000
 0.000000000000    0.000000000000    0.000000000000

 0.167584948408   -0.000000009567    0.000000000000
-0.000000009567   -0.099999268283    0.000000000000
 0.000000000000    0.000000000000    0.000000000000

 0.167585027140   -0.000000006047    0.000000000000
-0.000000006047   -0.099999312650    0.000000000000
 0.000000000000    0.000000000000    0.000000000000

 0.167585120802   -0.000000002003    0.000000000000
-0.000000002003   -0.099999365168    0.000000000000
 0.000000000000    0.000000000000    0.000000000000

 0.167585206417    0.000000004463    0.000000000000
 0.000000004463   -0.099999413844    0.000000000000
 0.000000000000    0.000000000000    0.000000000000

 0.167585311958   -0.000000000637    0.000000000000
-0.000000000637   -0.099999472788    0.000000000000
 0.000000000000    0.000000000000    0.000000000000

 0.167585413207    0.000000009698    0.000000000000
 0.000000009698   -0.099999530523    0.000000000000
 0.000000000000    0.000000000000    0.000000000000

 0.167585527561    0.000000003876    0.000000000000
 0.000000003876   -0.099999594507    0.000000000000
 0.000000000000    0.000000000000    0.000000000000

 0.167585639316    0.000000007041    0.000000000000
 0.000000007041   -0.099999657438    0.000000000000
 0.000000000000    0.000000000000    0.000000000000

 0.167585724698    0.000000004281    0.000000000000
 0.000000004281   -0.099999705665    0.000000000000
 0.000000000000    0.000000000000    0.000000000000

 0.167585817837   -0.000000001192    0.000000000000
-0.000000001192   -0.099999757386    0.000000000000
 0.000000000000    0.000000000000    0.000000000000

 0.167585892491    0.000000000235    0.000000000000
 0.000000000235   -0.099999800217    0.000000000000
 0.000000000000    0.000000000000    0.000000000000

 0.167585973777   -0.000000002436    0.000000000000
-0.000000002436   -0.099999845269    0.000000000000
 0.000000000000    0.000000000000    0.000000000000

 0.167586052336   -0.000000002795    0.000000000000
-0.000000002795   -0.099999890453    0.000000000000
 0.000000000000    0.000000000000    0.000000000000

 0.167586132986    0.000000000931    0.000000000000
 0.000000000931   -0.099999935451    0.000000000000
 0.000000000000    0.000000000000    0.000000000000

 0.167586214819   -0.000000002629    0.000000000000
-0.000000002629   -0.099999982359    0.000000000000
 0.000000000000    0.000000000000    0.000000000000

 0.167586296569    0.000000003175    0.000000000000
 0.000000003175   -0.100000028095    0.000000000000
 0.000000000000    0.000000000000    0.000000000000

 0.167586369146   -0.000000000407    0.000000000000
-0.000000000407   -0.100000069709    0.000000000000
 0.000000000000    0.000000000000    0.000000000000

 0.167586443571    0.000000000952    0.000000000000
 0.000000000952   -0.100000111247    0.000000000000
 0.000000000000    0.000000000000    0.000000000000

 0.167586499189    0.000000000517    0.000000000000
 0.000000000517   -0.100000143299    0.000000000000
 0.000000000000    0.000000000000    0.000000000000

 0.167586558884   -0.000000002656    0.000000000000
-0.000000002656   -0.100000176471    0.000000000000
 0.000000000000    0.000000000000    0.000000000000

 0.167586605253   -0.000000000192    0.000000000000
-0.000000000192   -0.100000203264    0.000000000000
 0.000000000000    0.000000000000    0.000000000000

 0.167586654842   -0.000000003375    0.000000000000
-0.000000003375   -0.100000230719    0.000000000000
 0.000000000000    0.000000000000    0.000000000000

 0.167586699375   -0.000000000922    0.000000000000
-0.000000000922   -0.100000256389    0.000000000000
 0.000000000000    0.000000000000    0.000000000000

 0.167586745468   -0.000000001875    0.000000000000
-0.000000001875   -0.100000281857    0.000000000000
 0.000000000000    0.000000000000    0.000000000000

 0.167586788517   -0.000000001014    0.000000000000
-0.000000001014   -0.100000306623    0.000000000000
 0.000000000000    0.000000000000    0.000000000000

 0.167586832612   -0.000000000248    0.000000000000
-0.000000000248   -0.100000330960    0.000000000000
 0.000000000000    0.000000000000    0.000000000000

 0.167586873093   -0.000000001012    0.000000000000
-0.000000001012   -0.100000354248    0.000000000000
 0.000000000000    0.000000000000    0.000000000000

 0.167586915103    0.000000000534    0.000000000000
 0.000000000534   -0.100000377437    0.000000000000
 0.000000000000    0.000000000000    0.000000000000

 0.167586951939   -0.000000001237    0.000000000000
-0.000000001237   -0.100000398658    0.000000000000
 0.000000000000    0.000000000000    0.000000000000

 0.167586990535    0.000000000696    0.000000000000
 0.000000000696   -0.100000419970    0.000000000000
 0.000000000000    0.000000000000    0.000000000000

 0.167587023881   -0.000000001401    0.000000000000
-0.000000001401   -0.100000439207    0.000000000000
 0.000000000000    0.000000000000    0.000000000000

 0.167587058895    0.000000000778    0.000000000000
 0.000000000778   -0.100000458537    0.000000000000
 0.000000000000    0.000000000000    0.000000000000

 0.167587088903   -0.000000001496    0.000000000000
-0.000000001496   -0.100000475886    0.000000000000
 0.000000000000    0.000000000000    0.000000000000

 0.167587120098    0.000000000931    0.000000000000
 0.000000000931   -0.100000493078    0.000000000000
 0.000000000000    0.000000000000    0.000000000000

 0.167587146570   -0.000000001559    0.000000000000
-0.000000001559   -0.100000508446    0.000000000000
 0.000000000000    0.000000000000    0.000000000000

 0.167587174430    0.000000000511    0.000000000000
 0.000000000511   -0.100000523761    0.000000000000
 0.000000000000    0.000000000000    0.000000000000

 0.167587195217   -0.000000001683    0.000000000000
-0.000000001683   -0.100000535944    0.000000000000
 0.000000000000    0.000000000000    0.000000000000

 0.167587217315   -0.000000000933    0.000000000000
-0.000000000933   -0.100000548079    0.000000000000
 0.000000000000    0.000000000000    0.000000000000

 0.167587231484   -0.000000001976    0.000000000000
-0.000000001976   -0.100000556464    0.000000000000
 0.000000000000    0.000000000000    0.000000000000

 0.167587245728   -0.000000001916    0.000000000000
-0.000000001916   -0.100000564220    0.000000000000
 0.000000000000    0.000000000000    0.000000000000

 0.167587252930   -0.000000001034    0.000000000000
-0.000000001034   -0.100000568609    0.000000000000
 0.000000000000    0.000000000000    0.000000000000

 0.167587261347   -0.000000000794    0.000000000000
-0.000000000794   -0.100000572899    0.000000000000
 0.000000000000    0.000000000000    0.000000000000

 0.167586887986   -0.000000011736    0.000000000000
-0.000000011736   -0.100000362554    0.000000000000
 0.000000000000    0.000000000000    0.000000000000

 0.167586770709   -0.000000011464    0.000000000000
-0.000000011464   -0.100000295615    0.000000000000
 0.000000000000    0.000000000000    0.000000000000

 0.167586255535    0.000000039606    0.000000000000
 0.000000039606   -0.100000002611    0.000000000000
 0.000000000000    0.000000000000    0.000000000000

 0.167586897688   -0.000000320795    0.000000000000
-0.000000320795   -0.100000369203    0.000000000000
 0.000000000000    0.000000000000    0.000000000000

 0.167584699153    0.000000007203    0.000000000000
 0.000000007203   -0.099999125738    0.000000000000
 0.000000000000    0.000000000000    0.000000000000

 0.167587250182   -0.000000001936    0.000000000000
-0.000000001936   -0.100000566615    0.000000000000
 0.000000000000    0.000000000000    0.000000000000

 0.167584684403    0.000000005454    0.000000000000
 0.000000005454   -0.099999121469    0.000000000000
 0.000000000000    0.000000000000    0.000000000000

 0.167584645700    0.000000006708    0.000000000000
 0.000000006708   -0.099999096700    0.000000000000
 0.000000000000    0.000000000000    0.000000000000

 0.167584672643   -0.000000002498    0.000000000000
-0.000000002498   -0.099999113219    0.000000000000
 0.000000000000    0.000000000000    0.000000000000

 0.167584623294    0.000000003201    0.000000000000
 0.000000003201   -0.099999084617    0.000000000000
 0.000000000000    0.000000000000    0.000000000000

 0.167586536808   -0.000000106582    0.000000000000
-0.000000106582   -0.100000168808    0.000000000000
 0.000000000000    0.000000000000    0.000000000000

 0.167586838783    0.000000106592    0.000000000000
 0.000000106592   -0.100000326928    0.000000000000
 0.000000000000    0.000000000000    0.000000000000

 0.167587395538    0.000000044929    0.000000000000
 0.000000044929   -0.100000647154    0.000000000000
 0.000000000000    0.000000000000    0.000000000000

 0.167586411985   -0.000000587757    0.000000000000
-0.000000587757   -0.100000105991    0.000000000000
 0.000000000000    0.000000000000    0.000000000000

 0.167586366210    0.000000074540    0.000000000000
 0.000000074540   -0.100000070290    0.000000000000
 0.000000000000    0.000000000000    0.000000000000

 0.167585926493    0.000000023986    0.000000000000
 0.000000023986   -0.099999817594    0.000000000000
 0.000000000000    0.000000000000    0.000000000000

 0.167586033733    0.000000028545    0.000000000000
 0.000000028545   -0.099999879360    0.000000000000
 0.000000000000    0.000000000000    0.000000000000

 0.167585951506    0.000000101233    0.000000000000
 0.000000101233   -0.099999834923    0.000000000000
 0.000000000000    0.000000000000    0.000000000000

 0.167587246625   -0.000000001855    0.000000000000
-0.000000001855   -0.100000565452    0.000000000000
 0.000000000000    0.000000000000    0.000000000000

 0.167587253803   -0.000000001577    0.000000000000
-0.000000001577   -0.100000568925    0.000000000000
 0.000000000000    0.000000000000    0.000000000000

 0.167587255942   -0.000000000637    0.000000000000
-0.000000000637   -0.100000570443    0.000000000000
 0.000000000000    0.000000000000    0.000000000000

 0.167587261759   -0.000000000333    0.000000000000
-0.000000000333   -0.100000573588    0.000000000000
 0.000000000000    0.000000000000    0.000000000000

 0.167585721577   -0.000000026062    0.000000000000
-0.000000026062   -0.099999705180    0.000000000000
 0.000000000000    0.000000000000    0.000000000000

 0.167585769796   -0.000000025685    0.000000000000
-0.000000025685   -0.099999732429    0.000000000000
 0.000000000000    0.000000000000    0.000000000000

 0.167585833236   -0.000000018411    0.000000000000
-0.000000018411   -0.099999768261    0.000000000000
 0.000000000000    0.000000000000    0.000000000000

 0.167585924371   -0.000000011395    0.000000000000
-0.000000011395   -0.099999819602    0.000000000000
 0.000000000000    0.000000000000    0.000000000000

 0.167586025179   -0.000000008850    0.000000000000
-0.000000008850   -0.099999876261    0.000000000000
 0.000000000000    0.000000000000    0.000000000000

 0.167586130559   -0.000000006769    0.000000000000
-0.000000006769   -0.099999935470    0.000000000000
 0.000000000000    0.000000000000    0.000000000000

 0.167586250253   -0.000000006391    0.000000000000
-0.000000006391   -0.100000002867    0.000000000000
 0.000000000000    0.000000000000    0.000000000000

 0.167586357832   -0.000000010979    0.000000000000
-0.000000010979   -0.100000063415    0.000000000000
 0.000000000000    0.000000000000    0.000000000000

 0.167586453356   -0.000000017930    0.000000000000
-0.000000017930   -0.100000117031    0.000000000000
 0.000000000000    0.000000000000    0.000000000000

 0.167586569590   -0.000000023580    0.000000000000
-0.000000023580   -0.100000182249    0.000000000000
 0.000000000000    0.000000000000    0.000000000000

 0.167586683795   -0.000000021955    0.000000000000
-0.000000021955   -0.100000246465    0.000000000000
 0.000000000000    0.000000000000    0.000000000000

 0.167586692839   -0.000000019348    0.000000000000
-0.000000019348   -0.100000252597    0.000000000000
 0.000000000000    0.000000000000    0.000000000000

 0.167586641023   -0.000000020010    0.000000000000
-0.000000020010   -0.100000223240    0.000000000000
 0.000000000000    0.000000000000    0.000000000000

 0.167586594251   -0.000000023627    0.000000000000
-0.000000023627   -0.100000196751    0.000000000000
 0.000000000000    0.000000000000    0.000000000000

 0.167586544437   -0.000000026293    0.000000000000
-0.000000026293   -0.100000168913    0.000000000000
 0.000000000000    0.000000000000    0.000000000000

 0.167586482949   -0.000000024358    0.000000000000
-0.000000024358   -0.100000133626    0.000000000000
 0.000000000000    0.000000000000    0.000000000000

 0.167586432130   -0.000000015923    0.000000000000
-0.000000015923   -0.100000105631    0.000000000000
 0.000000000000    0.000000000000    0.000000000000

 0.167586383148   -0.000000009628    0.000000000000
-0.000000009628   -0.100000077328    0.000000000000
 0.000000000000    0.000000000000    0.000000000000

 0.167586343525   -0.000000006099    0.000000000000
-0.000000006099   -0.100000055623    0.000000000000
 0.000000000000    0.000000000000    0.000000000000

 0.167586299347   -0.000000004133    0.000000000000
-0.000000004133   -0.100000030091    0.000000000000
 0.000000000000    0.000000000000    0.000000000000

 0.167586247827   -0.000000014857    0.000000000000
-0.000000014857   -0.100000001699    0.000000000000
 0.000000000000    0.000000000000    0.000000000000

 0.167586186150   -0.000000015287    0.000000000000
-0.000000015287   -0.099999966104    0.000000000000
 0.000000000000    0.000000000000    0.000000000000

 0.167586125598   -0.000000012493    0.000000000000
-0.000000012493   -0.099999932710    0.000000000000
 0.000000000000    0.000000000000    0.000000000000

 0.167586069265   -0.000000011499    0.000000000000
-0.000000011499   -0.099999900076    0.000000000000
 0.000000000000    0.000000000000    0.000000000000

 0.167586025738   -0.000000007460    0.000000000000
-0.000000007460   -0.099999876348    0.000000000000
 0.000000000000    0.000000000000    0.000000000000

 0.167585979878   -0.000000010931    0.000000000000
-0.000000010931   -0.099999849433    0.000000000000
 0.000000000000    0.000000000000    0.000000000000

 0.167585937284   -0.000000019031    0.000000000000
-0.000000019031   -0.099999826555    0.000000000000
 0.000000000000    0.000000000000    0.000000000000

 0.167585886521   -0.000000024571    0.000000000000
-0.000000024571   -0.099999796322    0.000000000000
 0.000000000000    0.000000000000    0.000000000000

 0.167585848793   -0.000000019620    0.000000000000
-0.000000019620   -0.099999776604    0.000000000000
 0.000000000000    0.000000000000    0.000000000000

 0.167585814182   -0.000000023996    0.000000000000
-0.000000023996   -0.099999755129    0.000000000000
 0.000000000000    0.000000000000    0.000000000000

 0.167585803170   -0.000000018861    0.000000000000
-0.000000018861   -0.099999750777    0.000000000000
 0.000000000000    0.000000000000    0.000000000000

 0.167585783620   -0.000000025882    0.000000000000
-0.000000025882   -0.099999737547    0.000000000000
 0.000000000000    0.000000000000    0.000000000000

 0.167585770272   -0.000000030858    0.000000000000
-0.000000030858   -0.099999732329    0.000000000000
 0.000000000000    0.000000000000    0.000000000000

 0.167585748295   -0.000000036456    0.000000000000
-0.000000036456   -0.099999717050    0.000000000000
 0.000000000000    0.000000000000    0.000000000000

 0.167585736783   -0.000000027920    0.000000000000
-0.000000027920   -0.099999713180    0.000000000000
 0.000000000000    0.000000000000    0.000000000000

 0.167585693145   -0.000000020640    0.000000000000
-0.000000020640   -0.099999689578    0.000000000000
 0.000000000000    0.000000000000    0.000000000000

 0.167585675529   -0.000000024435    0.000000000000
-0.000000024435   -0.099999676816    0.000000000000
 0.000000000000    0.000000000000    0.000000000000

 0.167585683180   -0.000000026454    0.000000000000
-0.000000026454   -0.099999683301    0.000000000000
 0.000000000000    0.000000000000    0.000000000000

 0.167585702479   -0.000000026042    0.000000000000
-0.000000026042   -0.099999691892    0.000000000000
 0.000000000000    0.000000000000    0.000000000000

 0.167585736305   -0.000000025187    0.000000000000
-0.000000025187   -0.099999713354    0.000000000000
 0.000000000000    0.000000000000    0.000000000000

 0.167585769550   -0.000000023496    0.000000000000
-0.000000023496   -0.099999730192    0.000000000000
 0.000000000000    0.000000000000    0.000000000000

 0.167585822215   -0.000000018117    0.000000000000
-0.000000018117   -0.099999761799    0.000000000000
 0.000000000000    0.000000000000    0.000000000000

 0.167585865259   -0.000000014337    0.000000000000
-0.000000014337   -0.099999784628    0.000000000000
 0.000000000000    0.000000000000    0.000000000000

 0.167585917824   -0.000000009768    0.000000000000
-0.000000009768   -0.099999815638    0.000000000000
 0.000000000000    0.000000000000    0.000000000000

 0.167585968525   -0.000000008211    0.000000000000
-0.000000008211   -0.099999843170    0.000000000000
 0.000000000000    0.000000000000    0.000000000000

 0.167586025439   -0.000000007034    0.000000000000
-0.000000007034   -0.099999876225    0.000000000000
 0.000000000000    0.000000000000    0.000000000000

 0.167586079186   -0.000000006534    0.000000000000
-0.000000006534   -0.099999905670    0.000000000000
 0.000000000000    0.000000000000    0.000000000000

 0.167586140181   -0.000000005176    0.000000000000
-0.000000005176   -0.099999940772    0.000000000000
 0.000000000000    0.000000000000    0.000000000000

 0.167586197941   -0.000000004303    0.000000000000
-0.000000004303   -0.099999972746    0.000000000000
 0.000000000000    0.000000000000    0.000000000000

 0.167586253847   -0.000000006013    0.000000000000
-0.000000006013   -0.100000004828    0.000000000000
 0.000000000000    0.000000000000    0.000000000000

 0.167586311593   -0.000000006099    0.000000000000
-0.000000006099   -0.100000036960    0.000000000000
 0.000000000000    0.000000000000    0.000000000000

 0.167586368201   -0.000000012172    0.000000000000
-0.000000012172   -0.100000069403    0.000000000000
 0.000000000000    0.000000000000    0.000000000000

 0.167586420639   -0.000000014861    0.000000000000
-0.000000014861   -0.100000098504    0.000000000000
 0.000000000000    0.000000000000    0.000000000000

 0.167586481277   -0.000000018261    0.000000000000
-0.000000018261   -0.100000133183    0.000000000000
 0.000000000000    0.000000000000    0.000000000000

 0.167586535316   -0.000000023083    0.000000000000
-0.000000023083   -0.100000163376    0.000000000000
 0.000000000000    0.000000000000    0.000000000000

 0.167586592985   -0.000000023177    0.000000000000
-0.000000023177   -0.100000196193    0.000000000000
 0.000000000000    0.000000000000    0.000000000000

 0.167586651456   -0.000000023737    0.000000000000
-0.000000023737   -0.100000229269    0.000000000000
 0.000000000000    0.000000000000    0.000000000000

 0.167586702319   -0.000000023820    0.000000000000
-0.000000023820   -0.100000257925    0.000000000000
 0.000000000000    0.000000000000    0.000000000000

 0.167586749006   -0.000000015488    0.000000000000
-0.000000015488   -0.100000284607    0.000000000000
 0.000000000000    0.000000000000    0.000000000000

 0.167586780629   -0.000000015508    0.000000000000
-0.000000015508   -0.100000302356    0.000000000000
 0.000000000000    0.000000000000    0.000000000000

 0.167586740237   -0.000000015984    0.000000000000
-0.000000015984   -0.100000279400    0.000000000000
 0.000000000000    0.000000000000    0.000000000000

 0.167586723165   -0.000000013265    0.000000000000
-0.000000013265   -0.100000268904    0.000000000000
 0.000000000000    0.000000000000    0.000000000000

 0.167586606479   -0.000000018419    0.000000000000
-0.000000018419   -0.100000202907    0.000000000000
 0.000000000000    0.000000000000    0.000000000000

 0.167586506648   -0.000000021514    0.000000000000
-0.000000021514   -0.100000146875    0.000000000000
 0.000000000000    0.000000000000    0.000000000000

 0.167586406050   -0.000000016566    0.000000000000
-0.000000016566   -0.100000090624    0.000000000000
 0.000000000000    0.000000000000    0.000000000000

 0.167586321461   -0.000000004735    0.000000000000
-0.000000004735   -0.100000043011    0.000000000000
 0.000000000000    0.000000000000    0.000000000000

 0.167586241864   -0.000000009607    0.000000000000
-0.000000009607   -0.099999998046    0.000000000000
 0.000000000000    0.000000000000    0.000000000000

 0.167586121403   -0.000000016319    0.000000000000
-0.000000016319   -0.099999930499    0.000000000000
 0.000000000000    0.000000000000    0.000000000000

 0.167586018931   -0.000000011453    0.000000000000
-0.000000011453   -0.099999872939    0.000000000000
 0.000000000000    0.000000000000    0.000000000000

 0.167585945097   -0.000000017225    0.000000000000
-0.000000017225   -0.099999831252    0.000000000000
 0.000000000000    0.000000000000    0.000000000000

 0.167585860374   -0.000000023299    0.000000000000
-0.000000023299   -0.099999783608    0.000000000000
 0.000000000000    0.000000000000    0.000000000000

 0.167585819255   -0.000000017929    0.000000000000
-0.000000017929   -0.099999760257    0.000000000000
 0.000000000000    0.000000000000    0.000000000000

 0.167585814064   -0.000000023204    0.000000000000
-0.000000023204   -0.099999757153    0.000000000000
 0.000000000000    0.000000000000    0.000000000000

 0.167585776628   -0.000000032384    0.000000000000
-0.000000032384   -0.099999736263    0.000000000000
 0.000000000000    0.000000000000    0.000000000000

 0.167585734195   -0.000000032288    0.000000000000
-0.000000032288   -0.099999710478    0.000000000000
 0.000000000000    0.000000000000    0.000000000000

 0.167585837217   -0.000000027641    0.000000000000
-0.000000027641   -0.099999769105    0.000000000000
 0.000000000000    0.000000000000    0.000000000000

 0.167585676558   -0.000000018194    0.000000000000
-0.000000018194   -0.099999679017    0.000000000000
 0.000000000000    0.000000000000    0.000000000000

 0.167585654275   -0.000000028166    0.000000000000
-0.000000028166   -0.099999667034    0.000000000000
 0.000000000000    0.000000000000    0.000000000000

 0.167585658348   -0.000000017508    0.000000000000
-0.000000017508   -0.099999669735    0.000000000000
 0.000000000000    0.000000000000    0.000000000000

 0.167585696966   -0.000000015679    0.000000000000
-0.000000015679   -0.099999691743    0.000000000000
 0.000000000000    0.000000000000    0.000000000000

 0.167585795758   -0.000000013583    0.000000000000
-0.000000013583   -0.099999747351    0.000000000000
 0.000000000000    0.000000000000    0.000000000000

 0.167585910146   -0.000000007444    0.000000000000
-0.000000007444   -0.099999811524    0.000000000000
 0.000000000000    0.000000000000    0.000000000000

 0.167586019192   -0.000000003723    0.000000000000
-0.000000003723   -0.099999872732    0.000000000000
 0.000000000000    0.000000000000    0.000000000000

 0.167586144653   -0.000000002181    0.000000000000
-0.000000002181   -0.099999943246    0.000000000000
 0.000000000000    0.000000000000    0.000000000000

 0.167586263137   -0.000000002541    0.000000000000
-0.000000002541   -0.100000009933    0.000000000000
 0.000000000000    0.000000000000    0.000000000000

 0.167586371670   -0.000000010834    0.000000000000
-0.000000010834   -0.100000071020    0.000000000000
 0.000000000000    0.000000000000    0.000000000000

 0.167586496719   -0.000000020502    0.000000000000
-0.000000020502   -0.100000141255    0.000000000000
 0.000000000000    0.000000000000    0.000000000000

 0.167586619751   -0.000000021978    0.000000000000
-0.000000021978   -0.100000210396    0.000000000000
 0.000000000000    0.000000000000    0.000000000000

 0.167586720772   -0.000000018513    0.000000000000
-0.000000018513   -0.100000267364    0.000000000000
 0.000000000000    0.000000000000    0.000000000000

 0.167586804902   -0.000000013768    0.000000000000
-0.000000013768   -0.100000314922    0.000000000000
 0.000000000000    0.000000000000    0.000000000000

 0.167586823735   -0.000000007581    0.000000000000
-0.000000007581   -0.100000326448    0.000000000000
 0.000000000000    0.000000000000    0.000000000000

 0.167586855494   -0.000000008400    0.000000000000
-0.000000008400   -0.100000344801    0.000000000000
 0.000000000000    0.000000000000    0.000000000000

 0.167586835270   -0.000000006958    0.000000000000
-0.000000006958   -0.100000332690    0.000000000000
 0.000000000000    0.000000000000    0.000000000000

 0.167586791370   -0.000000004170    0.000000000000
-0.000000004170   -0.100000308151    0.000000000000
 0.000000000000    0.000000000000    0.000000000000

 0.167586677041   -0.000000011165    0.000000000000
-0.000000011165   -0.100000243874    0.000000000000
 0.000000000000    0.000000000000    0.000000000000

 0.167586623379   -0.000000022434    0.000000000000
-0.000000022434   -0.100000213180    0.000000000000
 0.000000000000    0.000000000000    0.000000000000

 0.167586567485   -0.000000027368    0.000000000000
-0.000000027368   -0.100000181894    0.000000000000
 0.000000000000    0.000000000000    0.000000000000

 0.167586503554   -0.000000029496    0.000000000000
-0.000000029496   -0.100000145281    0.000000000000
 0.000000000000    0.000000000000    0.000000000000

 0.167586448247   -0.000000014062    0.000000000000
-0.000000014062   -0.100000114514    0.000000000000
 0.000000000000    0.000000000000    0.000000000000

 0.167586405270   -0.000000012515    0.000000000000
-0.000000012515   -0.100000089632    0.000000000000
 0.000000000000    0.000000000000    0.000000000000

 0.167586388206   -0.000000006148    0.000000000000
-0.000000006148   -0.100000080961    0.000000000000
 0.000000000000    0.000000000000    0.000000000000

 0.167586352007   -0.000000001464    0.000000000000
-0.000000001464   -0.100000059828    0.000000000000
 0.000000000000    0.000000000000    0.000000000000

 0.167586312850   -0.000000016249    0.000000000000
-0.000000016249   -0.100000038544    0.000000000000
 0.000000000000    0.000000000000    0.000000000000

 0.167586266763   -0.000000014549    0.000000000000
-0.000000014549   -0.100000011757    0.000000000000
 0.000000000000    0.000000000000    0.000000000000

 0.167586205686   -0.000000011887    0.000000000000
-0.000000011887   -0.099999977946    0.000000000000
 0.000000000000    0.000000000000    0.000000000000

 0.167586155847   -0.000000015340    0.000000000000
-0.000000015340   -0.099999948939    0.000000000000
 0.000000000000    0.000000000000    0.000000000000

 0.167586125992   -0.000000011305    0.000000000000
-0.000000011305   -0.099999933163    0.000000000000
 0.000000000000    0.000000000000    0.000000000000

 0.167586076806   -0.000000012509    0.000000000000
-0.000000012509   -0.099999904331    0.000000000000
 0.000000000000    0.000000000000    0.000000000000

 0.167586034397   -0.000000024575    0.000000000000
-0.000000024575   -0.099999881463    0.000000000000
 0.000000000000    0.000000000000    0.000000000000

 0.167585985709   -0.000000026303    0.000000000000
-0.000000026303   -0.099999852598    0.000000000000
 0.000000000000    0.000000000000    0.000000000000

 0.167585934566   -0.000000020217    0.000000000000
-0.000000020217   -0.099999824844    0.000000000000
 0.000000000000    0.000000000000    0.000000000000

 0.167585896338   -0.000000025616    0.000000000000
-0.000000025616   -0.099999801610    0.000000000000
 0.000000000000    0.000000000000    0.000000000000

 0.167585888959   -0.000000017672    0.000000000000
-0.000000017672   -0.099999799134    0.000000000000
 0.000000000000    0.000000000000    0.000000000000

 0.167585865558   -0.000000020342    0.000000000000
-0.000000020342   -0.099999784045    0.000000000000
 0.000000000000    0.000000000000    0.000000000000

 0.167585855361   -0.000000029190    0.000000000000
-0.000000029190   -0.099999780131    0.000000000000
 0.000000000000    0.000000000000    0.000000000000

 0.167585841843   -0.000000029447    0.000000000000
-0.000000029447   -0.099999770428    0.000000000000
 0.000000000000    0.000000000000    0.000000000000

 0.167585827759   -0.000000022991    0.000000000000
-0.000000022991   -0.099999764443    0.000000000000
 0.000000000000    0.000000000000    0.000000000000

 0.167585823501   -0.000000025783    0.000000000000
-0.000000025783   -0.099999759855    0.000000000000
 0.000000000000    0.000000000000    0.000000000000

 0.167585862752   -0.000000023849    0.000000000000
-0.000000023849   -0.099999784705    0.000000000000
 0.000000000000    0.000000000000    0.000000000000

 0.167585872343   -0.000000027017    0.000000000000
-0.000000027017   -0.099999787751    0.000000000000
 0.000000000000    0.000000000000    0.000000000000

 0.167585884807   -0.000000040683    0.000000000000
-0.000000040683   -0.099999797249    0.000000000000
 0.000000000000    0.000000000000    0.000000000000

 0.167585933554   -0.000000012799    0.000000000000
-0.000000012799   -0.099999823130    0.000000000000
 0.000000000000    0.000000000000    0.000000000000

 0.167585804218   -0.000000017420    0.000000000000
-0.000000017420   -0.099999751519    0.000000000000
 0.000000000000    0.000000000000    0.000000000000

 0.167585670184   -0.000000027428    0.000000000000
-0.000000027428   -0.099999674410    0.000000000000
 0.000000000000    0.000000000000    0.000000000000

 0.167585588602   -0.000000034846    0.000000000000
-0.000000034846   -0.099999630631    0.000000000000
 0.000000000000    0.000000000000    0.000000000000

 0.167585610566   -0.000000030083    0.000000000000
-0.000000030083   -0.099999640079    0.000000000000
 0.000000000000    0.000000000000    0.000000000000

 0.167585637249   -0.000000023558    0.000000000000
-0.000000023558   -0.099999657601    0.000000000000
 0.000000000000    0.000000000000    0.000000000000

 0.167585649909   -0.000000024089    0.000000000000
-0.000000024089   -0.099999662497    0.000000000000
 0.000000000000    0.000000000000    0.000000000000

 0.167585685583   -0.000000012580    0.000000000000
-0.000000012580   -0.099999685166    0.000000000000
 0.000000000000    0.000000000000    0.000000000000

 0.167585724392   -0.000000015335    0.000000000000
-0.000000015335   -0.099999705121    0.000000000000
 0.000000000000    0.000000000000    0.000000000000

 0.167585778537   -0.000000011577    0.000000000000
-0.000000011577   -0.099999737474    0.000000000000
 0.000000000000    0.000000000000    0.000000000000

 0.167585836469   -0.000000009005    0.000000000000
-0.000000009005   -0.099999768745    0.000000000000
 0.000000000000    0.000000000000    0.000000000000

 0.167585899112   -0.000000008504    0.000000000000
-0.000000008504   -0.099999805248    0.000000000000
 0.000000000000    0.000000000000    0.000000000000

 0.167585956046   -0.000000004022    0.000000000000
-0.000000004022   -0.099999836280    0.000000000000
 0.000000000000    0.000000000000    0.000000000000

 0.167586021205   -0.000000002577    0.000000000000
-0.000000002577   -0.099999873841    0.000000000000
 0.000000000000    0.000000000000    0.000000000000

 0.167586081893   -0.000000001735    0.000000000000
-0.000000001735   -0.099999907268    0.000000000000
 0.000000000000    0.000000000000    0.000000000000

 0.167586146167   -0.000000002067    0.000000000000
-0.000000002067   -0.099999944129    0.000000000000
 0.000000000000    0.000000000000    0.000000000000

 0.167586209566   -0.000000000231    0.000000000000
-0.000000000231   -0.099999979342    0.000000000000
 0.000000000000    0.000000000000    0.000000000000

 0.167586270137   -0.000000003478    0.000000000000
-0.000000003478   -0.100000013941    0.000000000000
 0.000000000000    0.000000000000    0.000000000000

 0.167586326801   -0.000000004687    0.000000000000
-0.000000004687   -0.100000045541    0.000000000000
 0.000000000000    0.000000000000    0.000000000000

 0.167586386798   -0.000000008735    0.000000000000
-0.000000008735   -0.100000079678    0.000000000000
 0.000000000000    0.000000000000    0.000000000000

 0.167586445841   -0.000000015944    0.000000000000
-0.000000015944   -0.100000112833    0.000000000000
 0.000000000000    0.000000000000    0.000000000000

 0.167586509390   -0.000000018333    0.000000000000
-0.000000018333   -0.100000148871    0.000000000000
 0.000000000000    0.000000000000    0.000000000000

 0.167586573105   -0.000000021213    0.000000000000
-0.000000021213   -0.100000184901    0.000000000000
 0.000000000000    0.000000000000    0.000000000000

 0.167586633769   -0.000000021120    0.000000000000
-0.000000021120   -0.100000219139    0.000000000000
 0.000000000000    0.000000000000    0.000000000000

 0.167586689434   -0.000000018108    0.000000000000
-0.000000018108   -0.100000250811    0.000000000000
 0.000000000000    0.000000000000    0.000000000000

 0.167586737681   -0.000000017697    0.000000000000
-0.000000017697   -0.100000277874    0.000000000000
 0.000000000000    0.000000000000    0.000000000000

 0.167586782635   -0.000000013716    0.000000000000
-0.000000013716   -0.100000303562    0.000000000000
 0.000000000000    0.000000000000    0.000000000000

 0.167586815410   -0.000000014356    0.000000000000
-0.000000014356   -0.100000321863    0.000000000000
 0.000000000000    0.000000000000    0.000000000000

 0.167586845229   -0.000000009175    0.000000000000
-0.000000009175   -0.100000339013    0.000000000000
 0.000000000000    0.000000000000    0.000000000000

 0.167586867539   -0.000000009014    0.000000000000
-0.000000009014   -0.100000350977    0.000000000000
 0.000000000000    0.000000000000    0.000000000000

 0.167586920544   -0.000000012471    0.000000000000
-0.000000012471   -0.100000381360    0.000000000000
 0.000000000000    0.000000000000    0.000000000000

 0.167586814964   -0.000000007817    0.000000000000
-0.000000007817   -0.100000321798    0.000000000000
 0.000000000000    0.000000000000    0.000000000000

 0.167586702912   -0.000000008161    0.000000000000
-0.000000008161   -0.100000258575    0.000000000000
 0.000000000000    0.000000000000    0.000000000000

 0.167586596778   -0.000000018897    0.000000000000
-0.000000018897   -0.100000197164    0.000000000000
 0.000000000000    0.000000000000    0.000000000000

 0.167586525701   -0.000000024752    0.000000000000
-0.000000024752   -0.100000157340    0.000000000000
 0.000000000000    0.000000000000    0.000000000000

 0.167586396096   -0.000000018792    0.000000000000
-0.000000018792   -0.100000084967    0.000000000000
 0.000000000000    0.000000000000    0.000000000000

 0.167586334596   -0.000000001605    0.000000000000
-0.000000001605   -0.100000050413    0.000000000000
 0.000000000000    0.000000000000    0.000000000000

 0.167586309775   -0.000000007127    0.000000000000
-0.000000007127   -0.100000036258    0.000000000000
 0.000000000000    0.000000000000    0.000000000000

 0.167586183834   -0.000000016243    0.000000000000
-0.000000016243   -0.099999965473    0.000000000000
 0.000000000000    0.000000000000    0.000000000000

 0.167586094560   -0.000000011447    0.000000000000
-0.000000011447   -0.099999915360    0.000000000000
 0.000000000000    0.000000000000    0.000000000000

 0.167586052853   -0.000000019722    0.000000000000
-0.000000019722   -0.099999891944    0.000000000000
 0.000000000000    0.000000000000    0.000000000000

 0.167585937388   -0.000000026830    0.000000000000
-0.000000026830   -0.099999827108    0.000000000000
 0.000000000000    0.000000000000    0.000000000000

 0.167585883400   -0.000000017856    0.000000000000
-0.000000017856   -0.099999796668    0.000000000000
 0.000000000000    0.000000000000    0.000000000000

 0.167585898193   -0.000000021590    0.000000000000
-0.000000021590   -0.099999804833    0.000000000000
 0.000000000000    0.000000000000    0.000000000000

 0.167585851817   -0.000000029250    0.000000000000
-0.000000029250   -0.099999778700    0.000000000000
 0.000000000000    0.000000000000    0.000000000000

 0.167585893702   -0.000000026006    0.000000000000
-0.000000026006   -0.099999801914    0.000000000000
 0.000000000000    0.000000000000    0.000000000000

 0.167585991851   -0.000000019563    0.000000000000
-0.000000019563   -0.099999856584    0.000000000000
 0.000000000000    0.000000000000    0.000000000000

 0.167586000123   -0.000000023787    0.000000000000
-0.000000023787   -0.099999861643    0.000000000000
 0.000000000000    0.000000000000    0.000000000000

 0.167585951543   -0.000000014407    0.000000000000
-0.000000014407   -0.099999835554    0.000000000000
 0.000000000000    0.000000000000    0.000000000000

 0.167585769554   -0.000000012249    0.000000000000
-0.000000012249   -0.099999731000    0.000000000000
 0.000000000000    0.000000000000    0.000000000000

 0.167585543122   -0.000000057891    0.000000000000
-0.000000057891   -0.099999600620    0.000000000000
 0.000000000000    0.000000000000    0.000000000000

 0.167585478540   -0.000000062023    0.000000000000
-0.000000062023   -0.099999569534    0.000000000000
 0.000000000000    0.000000000000    0.000000000000

 0.167585590920   -0.000000041623    0.000000000000
-0.000000041623   -0.099999632256    0.000000000000
 0.000000000000    0.000000000000    0.000000000000

 0.167585666647   -0.000000016987    0.000000000000
-0.000000016987   -0.099999674797    0.000000000000
 0.000000000000    0.000000000000    0.000000000000

 0.167585765056   -0.000000002356    0.000000000000
-0.000000002356   -0.099999730051    0.000000000000
 0.000000000000    0.000000000000    0.000000000000

 0.167585881371   -0.000000000609    0.000000000000
-0.000000000609   -0.099999795270    0.000000000000
 0.000000000000    0.000000000000    0.000000000000

 0.167586015109   -0.000000000380    0.000000000000
-0.000000000380   -0.099999870319    0.000000000000
 0.000000000000    0.000000000000    0.000000000000

 0.167586148935    0.000000001243    0.000000000000
 0.000000001243   -0.099999945521    0.000000000000
 0.000000000000    0.000000000000    0.000000000000

 0.167586272974   -0.000000002550    0.000000000000
-0.000000002550   -0.100000015272    0.000000000000
 0.000000000000    0.000000000000    0.000000000000

 0.167586396945   -0.000000010247    0.000000000000
-0.000000010247   -0.100000084947    0.000000000000
 0.000000000000    0.000000000000    0.000000000000

 0.167586522430   -0.000000015484    0.000000000000
-0.000000015484   -0.100000155521    0.000000000000
 0.000000000000    0.000000000000    0.000000000000

 0.167586644470   -0.000000017040    0.000000000000
-0.000000017040   -0.100000224302    0.000000000000
 0.000000000000    0.000000000000    0.000000000000

 0.167586752940   -0.000000014648    0.000000000000
-0.000000014648   -0.100000285607    0.000000000000
 0.000000000000    0.000000000000    0.000000000000

 0.167586828950   -0.000000011537    0.000000000000
-0.000000011537   -0.100000328795    0.000000000000
 0.000000000000    0.000000000000    0.000000000000

 0.167586879499   -0.000000014496    0.000000000000
-0.000000014496   -0.100000357478    0.000000000000
 0.000000000000    0.000000000000    0.000000000000

 0.167586941138   -0.000000012753    0.000000000000
-0.000000012753   -0.100000392335    0.000000000000
 0.000000000000    0.000000000000    0.000000000000

 0.167586960819   -0.000000011546    0.000000000000
-0.000000011546   -0.100000403625    0.000000000000
 0.000000000000    0.000000000000    0.000000000000

 0.167586914972   -0.000000011454    0.000000000000
-0.000000011454   -0.100000377607    0.000000000000
 0.000000000000    0.000000000000    0.000000000000

 0.167586854934   -0.000000008831    0.000000000000
-0.000000008831   -0.100000343831    0.000000000000
 0.000000000000    0.000000000000    0.000000000000

 0.167586802529   -0.000000003336    0.000000000000
-0.000000003336   -0.100000314250    0.000000000000
 0.000000000000    0.000000000000    0.000000000000

 0.167586747096   -0.000000000154    0.000000000000
-0.000000000154   -0.100000282356    0.000000000000
 0.000000000000    0.000000000000    0.000000000000

 0.167586676363    0.000000002050    0.000000000000
 0.000000002050   -0.100000243163    0.000000000000
 0.000000000000    0.000000000000    0.000000000000

 0.167586596938   -0.000000024216    0.000000000000
-0.000000024216   -0.100000197365    0.000000000000
 0.000000000000    0.000000000000    0.000000000000

 0.167586516733   -0.000000020225    0.000000000000
-0.000000020225   -0.100000153366    0.000000000000
 0.000000000000    0.000000000000    0.000000000000

 0.167586489926   -0.000000015010    0.000000000000
-0.000000015010   -0.100000137414    0.000000000000
 0.000000000000    0.000000000000    0.000000000000

 0.167586446993   -0.000000011276    0.000000000000
-0.000000011276   -0.100000113679    0.000000000000
 0.000000000000    0.000000000000    0.000000000000

 0.167586399655   -0.000000017456    0.000000000000
-0.000000017456   -0.100000086199    0.000000000000
 0.000000000000    0.000000000000    0.000000000000

 0.167586373151   -0.000000016316    0.000000000000
-0.000000016316   -0.100000072409    0.000000000000
 0.000000000000    0.000000000000    0.000000000000

 0.167586325791   -0.000000006576    0.000000000000
-0.000000006576   -0.100000044904    0.000000000000
 0.000000000000    0.000000000000    0.000000000000

 0.167586299680   -0.000000001927    0.000000000000
-0.000000001927   -0.100000030952    0.000000000000
 0.000000000000    0.000000000000    0.000000000000

 0.167586287342    0.000000004555    0.000000000000
 0.000000004555   -0.100000023449    0.000000000000
 0.000000000000    0.000000000000    0.000000000000

 0.167586255014   -0.000000004884    0.000000000000
-0.000000004884   -0.100000005693    0.000000000000
 0.000000000000    0.000000000000    0.000000000000

 0.167586217443   -0.000000016420    0.000000000000
-0.000000016420   -0.099999983738    0.000000000000
 0.000000000000    0.000000000000    0.000000000000

 0.167586180530   -0.000000023602    0.000000000000
-0.000000023602   -0.099999964037    0.000000000000
 0.000000000000    0.000000000000    0.000000000000

 0.167586120544   -0.000000021299    0.000000000000
-0.000000021299   -0.099999929082    0.000000000000
 0.000000000000    0.000000000000    0.000000000000

 0.167586085026   -0.000000013775    0.000000000000
-0.000000013775   -0.099999910127    0.000000000000
 0.000000000000    0.000000000000    0.000000000000

 0.167586060639   -0.000000011951    0.000000000000
-0.000000011951   -0.099999895112    0.000000000000
 0.000000000000    0.000000000000    0.000000000000

 0.167586030136   -0.000000016816    0.000000000000
-0.000000016816   -0.099999878967    0.000000000000
 0.000000000000    0.000000000000    0.000000000000

 0.167585993047   -0.000000029966    0.000000000000
-0.000000029966   -0.099999856373    0.000000000000
 0.000000000000    0.000000000000    0.000000000000

 0.167585968884   -0.000000033767    0.000000000000
-0.000000033767   -0.099999844538    0.000000000000
 0.000000000000    0.000000000000    0.000000000000

 0.167585922240   -0.000000031675    0.000000000000
-0.000000031675   -0.099999816217    0.000000000000
 0.000000000000    0.000000000000    0.000000000000

 0.167585908410   -0.000000021526    0.000000000000
-0.000000021526   -0.099999810147    0.000000000000
 0.000000000000    0.000000000000    0.000000000000

 0.167585907563   -0.000000017661    0.000000000000
-0.000000017661   -0.099999807744    0.000000000000
 0.000000000000    0.000000000000    0.000000000000

 0.167585905155   -0.000000019750    0.000000000000
-0.000000019750   -0.099999807995    0.000000000000
 0.000000000000    0.000000000000    0.000000000000

 0.167585900707   -0.000000030414    0.000000000000
-0.000000030414   -0.099999803566    0.000000000000
 0.000000000000    0.000000000000    0.000000000000

 0.167585917746   -0.000000031116    0.000000000000
-0.000000031116   -0.099999815349    0.000000000000
 0.000000000000    0.000000000000    0.000000000000

 0.167585915015   -0.000000032454    0.000000000000
-0.000000032454   -0.099999812078    0.000000000000
 0.000000000000    0.000000000000    0.000000000000

 0.167585954837   -0.000000017154    0.000000000000
-0.000000017154   -0.099999836466    0.000000000000
 0.000000000000    0.000000000000    0.000000000000

 0.167586014301   -0.000000016268    0.000000000000
-0.000000016268   -0.099999868835    0.000000000000
 0.000000000000    0.000000000000    0.000000000000

 0.167586062140   -0.000000009561    0.000000000000
-0.000000009561   -0.099999897163    0.000000000000
 0.000000000000    0.000000000000    0.000000000000

 0.167586075025   -0.000000016255    0.000000000000
-0.000000016255   -0.099999903582    0.000000000000
 0.000000000000    0.000000000000    0.000000000000

 0.167586088220   -0.000000007608    0.000000000000
-0.000000007608   -0.099999913315    0.000000000000
 0.000000000000    0.000000000000    0.000000000000

 0.167586120223   -0.000000012420    0.000000000000
-0.000000012420   -0.099999928705    0.000000000000
 0.000000000000    0.000000000000    0.000000000000

 0.167586121015    0.000000002338    0.000000000000
 0.000000002338   -0.099999932242    0.000000000000
 0.000000000000    0.000000000000    0.000000000000

 0.167586023186   -0.000000008257    0.000000000000
-0.000000008257   -0.099999873262    0.000000000000
 0.000000000000    0.000000000000    0.000000000000

 0.167585954705    0.000000014335    0.000000000000
 0.000000014335   -0.099999837338    0.000000000000
 0.000000000000    0.000000000000    0.000000000000

 0.167585911951   -0.000000019406    0.000000000000
-0.000000019406   -0.099999811542    0.000000000000
 0.000000000000    0.000000000000    0.000000000000

 0.167585740360   -0.000000051427    0.000000000000
-0.000000051427   -0.099999715903    0.000000000000
 0.000000000000    0.000000000000    0.000000000000

 0.167585543538   -0.000000028947    0.000000000000
-0.000000028947   -0.099999603271    0.000000000000
 0.000000000000    0.000000000000    0.000000000000

 0.167585400452   -0.000000049269    0.000000000000
-0.000000049269   -0.099999525996    0.000000000000
 0.000000000000    0.000000000000    0.000000000000

 0.167585375012   -0.000000010828    0.000000000000
-0.000000010828   -0.099999504465    0.000000000000
 0.000000000000    0.000000000000    0.000000000000

 0.167585370460   -0.000000044631    0.000000000000
-0.000000044631   -0.099999506165    0.000000000000
 0.000000000000    0.000000000000    0.000000000000

 0.167585444357   -0.000000034561    0.000000000000
-0.000000034561   -0.099999543229    0.000000000000
 0.000000000000    0.000000000000    0.000000000000

 0.167585502184   -0.000000045763    0.000000000000
-0.000000045763   -0.099999580817    0.000000000000
 0.000000000000    0.000000000000    0.000000000000

 0.167585560024   -0.000000026171    0.000000000000
-0.000000026171   -0.099999611710    0.000000000000
 0.000000000000    0.000000000000    0.000000000000

 0.167585644712   -0.000000021535    0.000000000000
-0.000000021535   -0.099999661908    0.000000000000
 0.000000000000    0.000000000000    0.000000000000

 0.167585698153   -0.000000008906    0.000000000000
-0.000000008906   -0.099999690586    0.000000000000
 0.000000000000    0.000000000000    0.000000000000

 0.167585761536   -0.000000003933    0.000000000000
-0.000000003933   -0.099999728065    0.000000000000
 0.000000000000    0.000000000000    0.000000000000

 0.167585817407   -0.000000003116    0.000000000000
-0.000000003116   -0.099999758188    0.000000000000
 0.000000000000    0.000000000000    0.000000000000

 0.167585877166    0.000000000884    0.000000000000
 0.000000000884   -0.099999793063    0.000000000000
 0.000000000000    0.000000000000    0.000000000000

 0.167585940515   -0.000000000795    0.000000000000
-0.000000000795   -0.099999827669    0.000000000000
 0.000000000000    0.000000000000    0.000000000000

 0.167586009423   -0.000000000580    0.000000000000
-0.000000000580   -0.099999867338    0.000000000000
 0.000000000000    0.000000000000    0.000000000000

 0.167586078330    0.000000001629    0.000000000000
 0.000000001629   -0.099999905393    0.000000000000
 0.000000000000    0.000000000000    0.000000000000

 0.167586147314   -0.000000000910    0.000000000000
-0.000000000910   -0.099999944849    0.000000000000
 0.000000000000    0.000000000000    0.000000000000

 0.167586212364    0.000000000607    0.000000000000
 0.000000000607   -0.099999981049    0.000000000000
 0.000000000000    0.000000000000    0.000000000000

 0.167586277226   -0.000000003122    0.000000000000
-0.000000003122   -0.100000017956    0.000000000000
 0.000000000000    0.000000000000    0.000000000000

 0.167586339558   -0.000000006724    0.000000000000
-0.000000006724   -0.100000052880    0.000000000000
 0.000000000000    0.000000000000    0.000000000000

 0.167586404409   -0.000000009186    0.000000000000
-0.000000009186   -0.100000089607    0.000000000000
 0.000000000000    0.000000000000    0.000000000000

 0.167586467279   -0.000000012837    0.000000000000
-0.000000012837   -0.100000125088    0.000000000000
 0.000000000000    0.000000000000    0.000000000000

 0.167586530384   -0.000000012761    0.000000000000
-0.000000012761   -0.100000160639    0.000000000000
 0.000000000000    0.000000000000    0.000000000000

 0.167586591838   -0.000000013808    0.000000000000
-0.000000013808   -0.100000195602    0.000000000000
 0.000000000000    0.000000000000    0.000000000000

 0.167586648667   -0.000000013618    0.000000000000
-0.000000013618   -0.100000227450    0.000000000000
 0.000000000000    0.000000000000    0.000000000000

 0.167586705587   -0.000000012110    0.000000000000
-0.000000012110   -0.100000259971    0.000000000000
 0.000000000000    0.000000000000    0.000000000000

 0.167586752959   -0.000000013336    0.000000000000
-0.000000013336   -0.100000286475    0.000000000000
 0.000000000000    0.000000000000    0.000000000000

 0.167586798807   -0.000000008692    0.000000000000
-0.000000008692   -0.100000312635    0.000000000000
 0.000000000000    0.000000000000    0.000000000000

 0.167586835200   -0.000000011291    0.000000000000
-0.000000011291   -0.100000333017    0.000000000000
 0.000000000000    0.000000000000    0.000000000000

 0.167586864867   -0.000000010505    0.000000000000
-0.000000010505   -0.100000349886    0.000000000000
 0.000000000000    0.000000000000    0.000000000000

 0.167586897149   -0.000000013646    0.000000000000
-0.000000013646   -0.100000367973    0.000000000000
 0.000000000000    0.000000000000    0.000000000000

 0.167586925678   -0.000000015361    0.000000000000
-0.000000015361   -0.100000384097    0.000000000000
 0.000000000000    0.000000000000    0.000000000000

 0.167586955243   -0.000000016042    0.000000000000
-0.000000016042   -0.100000400861    0.000000000000
 0.000000000000    0.000000000000    0.000000000000

 0.167586984813   -0.000000013424    0.000000000000
-0.000000013424   -0.100000417461    0.000000000000
 0.000000000000    0.000000000000    0.000000000000

 0.167587007293   -0.000000013232    0.000000000000
-0.000000013232   -0.100000429975    0.000000000000
 0.000000000000    0.000000000000    0.000000000000

 0.167586998882   -0.000000012174    0.000000000000
-0.000000012174   -0.100000425503    0.000000000000
 0.000000000000    0.000000000000    0.000000000000

 0.167586902026   -0.000000008803    0.000000000000
-0.000000008803   -0.100000370814    0.000000000000
 0.000000000000    0.000000000000    0.000000000000

 0.167586771166    0.000000001147    0.000000000000
 0.000000001147   -0.100000296900    0.000000000000
 0.000000000000    0.000000000000    0.000000000000

 0.167586659856   -0.000000013984    0.000000000000
-0.000000013984   -0.100000234694    0.000000000000
 0.000000000000    0.000000000000    0.000000000000

 0.167586495100   -0.000000021968    0.000000000000
-0.000000021968   -0.100000140292    0.000000000000
 0.000000000000    0.000000000000    0.000000000000

 0.167586361546   -0.000000010932    0.000000000000
-0.000000010932   -0.100000065233    0.000000000000
 0.000000000000    0.000000000000    0.000000000000

 0.167586307408   -0.000000009753    0.000000000000
-0.000000009753   -0.100000034957    0.000000000000
 0.000000000000    0.000000000000    0.000000000000

 0.167586284548   -0.000000000448    0.000000000000
-0.000000000448   -0.100000022401    0.000000000000
 0.000000000000    0.000000000000    0.000000000000

 0.167586206919    0.000000000043    0.000000000000
 0.000000000043   -0.099999978193    0.000000000000
 0.000000000000    0.000000000000    0.000000000000

 0.167586137834   -0.000000018927    0.000000000000
-0.000000018927   -0.099999939374    0.000000000000
 0.000000000000    0.000000000000    0.000000000000

 0.167586088081   -0.000000017437    0.000000000000
-0.000000017437   -0.099999911929    0.000000000000
 0.000000000000    0.000000000000    0.000000000000

 0.167586008206   -0.000000014484    0.000000000000
-0.000000014484   -0.099999866690    0.000000000000
 0.000000000000    0.000000000000    0.000000000000

 0.167585959741   -0.000000029080    0.000000000000
-0.000000029080   -0.099999839498    0.000000000000
 0.000000000000    0.000000000000    0.000000000000

 0.167585948136   -0.000000023691    0.000000000000
-0.000000023691   -0.099999833444    0.000000000000
 0.000000000000    0.000000000000    0.000000000000

 0.167585918522   -0.000000018209    0.000000000000
-0.000000018209   -0.099999816417    0.000000000000
 0.000000000000    0.000000000000    0.000000000000

 0.167585938332   -0.000000030632    0.000000000000
-0.000000030632   -0.099999827451    0.000000000000
 0.000000000000    0.000000000000    0.000000000000

 0.167586031204   -0.000000019525    0.000000000000
-0.000000019525   -0.099999879854    0.000000000000
 0.000000000000    0.000000000000    0.000000000000

 0.167586101110    0.000000001574    0.000000000000
 0.000000001574   -0.099999918543    0.000000000000
 0.000000000000    0.000000000000    0.000000000000

 0.167586172979   -0.000000003810    0.000000000000
-0.000000003810   -0.099999959101    0.000000000000
 0.000000000000    0.000000000000    0.000000000000

 0.167586210968    0.000000001769    0.000000000000
 0.000000001769   -0.099999979218    0.000000000000
 0.000000000000    0.000000000000    0.000000000000

 0.167586107147    0.000000003045    0.000000000000
 0.000000003045   -0.099999923737    0.000000000000
 0.000000000000    0.000000000000    0.000000000000

 0.167585974931    0.000000010965    0.000000000000
 0.000000010965   -0.099999848370    0.000000000000
 0.000000000000    0.000000000000    0.000000000000

 0.167585643466   -0.000000028019    0.000000000000
-0.000000028019   -0.099999657938    0.000000000000
 0.000000000000    0.000000000000    0.000000000000

 0.167585383755   -0.000000024994    0.000000000000
-0.000000024994   -0.099999509513    0.000000000000
 0.000000000000    0.000000000000    0.000000000000

 0.167585380402   -0.000000008779    0.000000000000
-0.000000008779   -0.099999514491    0.000000000000
 0.000000000000    0.000000000000    0.000000000000

 0.167585405653   -0.000000013763    0.000000000000
-0.000000013763   -0.099999528091    0.000000000000
 0.000000000000    0.000000000000    0.000000000000

 0.167585582752   -0.000000018038    0.000000000000
-0.000000018038   -0.099999627852    0.000000000000
 0.000000000000    0.000000000000    0.000000000000

 0.167585749121   -0.000000010310    0.000000000000
-0.000000010310   -0.099999720791    0.000000000000
 0.000000000000    0.000000000000    0.000000000000

 0.167585872568    0.000000000872    0.000000000000
 0.000000000872   -0.099999789989    0.000000000000
 0.000000000000    0.000000000000    0.000000000000

 0.167586003160    0.000000005610    0.000000000000
 0.000000005610   -0.099999863452    0.000000000000
 0.000000000000    0.000000000000    0.000000000000

 0.167586142859    0.000000002741    0.000000000000
 0.000000002741   -0.099999941987    0.000000000000
 0.000000000000    0.000000000000    0.000000000000

 0.167586277785   -0.000000003595    0.000000000000
-0.000000003595   -0.100000017788    0.000000000000
 0.000000000000    0.000000000000    0.000000000000

 0.167586408567   -0.000000008975    0.000000000000
-0.000000008975   -0.100000091302    0.000000000000
 0.000000000000    0.000000000000    0.000000000000

 0.167586537022   -0.000000010779    0.000000000000
-0.000000010779   -0.100000163640    0.000000000000
 0.000000000000    0.000000000000    0.000000000000

 0.167586654929   -0.000000009342    0.000000000000
-0.000000009342   -0.100000230212    0.000000000000
 0.000000000000    0.000000000000    0.000000000000

 0.167586755282   -0.000000008218    0.000000000000
-0.000000008218   -0.100000287045    0.000000000000
 0.000000000000    0.000000000000    0.000000000000

 0.167586835488   -0.000000010739    0.000000000000
-0.000000010739   -0.100000332504    0.000000000000
 0.000000000000    0.000000000000    0.000000000000

 0.167586907680   -0.000000014350    0.000000000000
-0.000000014350   -0.100000373330    0.000000000000
 0.000000000000    0.000000000000    0.000000000000

 0.167586970505   -0.000000015492    0.000000000000
-0.000000015492   -0.100000408935    0.000000000000
 0.000000000000    0.000000000000    0.000000000000

 0.167587022633   -0.000000015698    0.000000000000
-0.000000015698   -0.100000438262    0.000000000000
 0.000000000000    0.000000000000    0.000000000000

 0.167587075681   -0.000000011195    0.000000000000
-0.000000011195   -0.100000468350    0.000000000000
 0.000000000000    0.000000000000    0.000000000000

 0.167587035209   -0.000000012785    0.000000000000
-0.000000012785   -0.100000445637    0.000000000000
 0.000000000000    0.000000000000    0.000000000000

 0.167586986514   -0.000000011432    0.000000000000
-0.000000011432   -0.100000418091    0.000000000000
 0.000000000000    0.000000000000    0.000000000000

 0.167586940242   -0.000000009418    0.000000000000
-0.000000009418   -0.100000392050    0.000000000000
 0.000000000000    0.000000000000    0.000000000000

 0.167586887192   -0.000000004711    0.000000000000
-0.000000004711   -0.100000362047    0.000000000000
 0.000000000000    0.000000000000    0.000000000000

 0.167586812330   -0.000000006067    0.000000000000
-0.000000006067   -0.100000319653    0.000000000000
 0.000000000000    0.000000000000    0.000000000000

 0.167586744075   -0.000000004076    0.000000000000
-0.000000004076   -0.100000281329    0.000000000000
 0.000000000000    0.000000000000    0.000000000000

 0.167586705323    0.000000011290    0.000000000000
 0.000000011290   -0.100000259170    0.000000000000
 0.000000000000    0.000000000000    0.000000000000

 0.167586660811    0.000000002314    0.000000000000
 0.000000002314   -0.100000234574    0.000000000000
 0.000000000000    0.000000000000    0.000000000000

 0.167586579484   -0.000000022365    0.000000000000
-0.000000022365   -0.100000187244    0.000000000000
 0.000000000000    0.000000000000    0.000000000000

 0.167586397773   -0.000000009557    0.000000000000
-0.000000009557   -0.100000085137    0.000000000000
 0.000000000000    0.000000000000    0.000000000000

 0.167586442525    0.000000004344    0.000000000000
 0.000000004344   -0.100000110825    0.000000000000
 0.000000000000    0.000000000000    0.000000000000

 0.167586457329   -0.000000017376    0.000000000000
-0.000000017376   -0.100000119460    0.000000000000
 0.000000000000    0.000000000000    0.000000000000

 0.167586383560   -0.000000021792    0.000000000000
-0.000000021792   -0.100000076903    0.000000000000
 0.000000000000    0.000000000000    0.000000000000

 0.167586302969   -0.000000040203    0.000000000000
-0.000000040203   -0.100000032841    0.000000000000
 0.000000000000    0.000000000000    0.000000000000

 0.167586237869   -0.000000027403    0.000000000000
-0.000000027403   -0.099999994718    0.000000000000
 0.000000000000    0.000000000000    0.000000000000

 0.167586224037    0.000000026927    0.000000000000
 0.000000026927   -0.099999987848    0.000000000000
 0.000000000000    0.000000000000    0.000000000000

 0.167586241919    0.000000039013    0.000000000000
 0.000000039013   -0.099999997935    0.000000000000
 0.000000000000    0.000000000000    0.000000000000

 0.167586272345    0.000000003670    0.000000000000
 0.000000003670   -0.100000015405    0.000000000000
 0.000000000000    0.000000000000    0.000000000000

 0.167586246741   -0.000000011757    0.000000000000
-0.000000011757   -0.100000000445    0.000000000000
 0.000000000000    0.000000000000    0.000000000000

 0.167586164340   -0.000000043635    0.000000000000
-0.000000043635   -0.099999954891    0.000000000000
 0.000000000000    0.000000000000    0.000000000000

 0.167586096009   -0.000000040097    0.000000000000
-0.000000040097   -0.099999915028    0.000000000000
 0.000000000000    0.000000000000    0.000000000000

 0.167586068785    0.000000014342    0.000000000000
 0.000000014342   -0.099999900479    0.000000000000
 0.000000000000    0.000000000000    0.000000000000

 0.167586071658    0.000000017633    0.000000000000
 0.000000017633   -0.099999901663    0.000000000000
 0.000000000000    0.000000000000    0.000000000000

 0.167586102373   -0.000000011692    0.000000000000
-0.000000011692   -0.099999919784    0.000000000000
 0.000000000000    0.000000000000    0.000000000000

 0.167586072424   -0.000000028383    0.000000000000
-0.000000028383   -0.099999901444    0.000000000000
 0.000000000000    0.000000000000    0.000000000000

 0.167586001126   -0.000000056832    0.000000000000
-0.000000056832   -0.099999863026    0.000000000000
 0.000000000000    0.000000000000    0.000000000000

 0.167585940852   -0.000000052950    0.000000000000
-0.000000052950   -0.099999826611    0.000000000000
 0.000000000000    0.000000000000    0.000000000000

 0.167585931274    0.000000003918    0.000000000000
 0.000000003918   -0.099999822962    0.000000000000
 0.000000000000    0.000000000000    0.000000000000

 0.167585950757    0.000000008663    0.000000000000
 0.000000008663   -0.099999832523    0.000000000000
 0.000000000000    0.000000000000    0.000000000000

 0.167586004494   -0.000000018032    0.000000000000
-0.000000018032   -0.099999864455    0.000000000000
 0.000000000000    0.000000000000    0.000000000000

 0.167585998388   -0.000000032705    0.000000000000
-0.000000032705   -0.099999858921    0.000000000000
 0.000000000000    0.000000000000    0.000000000000

 0.167585957819   -0.000000058976    0.000000000000
-0.000000058976   -0.099999838369    0.000000000000
 0.000000000000    0.000000000000    0.000000000000

 0.167585928617   -0.000000054751    0.000000000000
-0.000000054751   -0.099999819423    0.000000000000
 0.000000000000    0.000000000000    0.000000000000

 0.167585960033    0.000000004642    0.000000000000
 0.000000004642   -0.099999838932    0.000000000000
 0.000000000000    0.000000000000    0.000000000000

 0.167586023313    0.000000009654    0.000000000000
 0.000000009654   -0.099999873942    0.000000000000
 0.000000000000    0.000000000000    0.000000000000

 0.167586120716   -0.000000010617    0.000000000000
-0.000000010617   -0.099999929854    0.000000000000
 0.000000000000    0.000000000000    0.000000000000

 0.167586166070   -0.000000019681    0.000000000000
-0.000000019681   -0.099999954780    0.000000000000
 0.000000000000    0.000000000000    0.000000000000

 0.167586155552   -0.000000042512    0.000000000000
-0.000000042512   -0.099999950078    0.000000000000
 0.000000000000    0.000000000000    0.000000000000

 0.167586161149   -0.000000025507    0.000000000000
-0.000000025507   -0.099999952028    0.000000000000
 0.000000000000    0.000000000000    0.000000000000

 0.167586200312    0.000000023616    0.000000000000
 0.000000023616   -0.099999975044    0.000000000000
 0.000000000000    0.000000000000    0.000000000000

 0.167586264732    0.000000033812    0.000000000000
 0.000000033812   -0.100000010761    0.000000000000
 0.000000000000    0.000000000000    0.000000000000

 0.167586358256    0.000000003614    0.000000000000
 0.000000003614   -0.100000064796    0.000000000000
 0.000000000000    0.000000000000    0.000000000000

 0.167586404657   -0.000000008815    0.000000000000
-0.000000008815   -0.100000089044    0.000000000000
 0.000000000000    0.000000000000    0.000000000000

 0.167586373668   -0.000000003765    0.000000000000
-0.000000003765   -0.100000074677    0.000000000000
 0.000000000000    0.000000000000    0.000000000000

 0.167586348225    0.000000004146    0.000000000000
 0.000000004146   -0.100000056835    0.000000000000
 0.000000000000    0.000000000000    0.000000000000

 0.167586332920   -0.000000013418    0.000000000000
-0.000000013418   -0.100000049443    0.000000000000
 0.000000000000    0.000000000000    0.000000000000

 0.167586213799   -0.000000005654    0.000000000000
-0.000000005654   -0.099999979801    0.000000000000
 0.000000000000    0.000000000000    0.000000000000

 0.167586112191    0.000000044261    0.000000000000
 0.000000044261   -0.099999925366    0.000000000000
 0.000000000000    0.000000000000    0.000000000000

 0.167586060147   -0.000000023441    0.000000000000
-0.000000023441   -0.099999893522    0.000000000000
 0.000000000000    0.000000000000    0.000000000000

 0.167585889575   -0.000000035955    0.000000000000
-0.000000035955   -0.099999800837    0.000000000000
 0.000000000000    0.000000000000    0.000000000000

 0.167585774062   -0.000000018515    0.000000000000
-0.000000018515   -0.099999733682    0.000000000000
 0.000000000000    0.000000000000    0.000000000000

 0.167585516435   -0.000000044349    0.000000000000
-0.000000044349   -0.099999592189    0.000000000000
 0.000000000000    0.000000000000    0.000000000000

 0.167585433967    0.000000011808    0.000000000000
 0.000000011808   -0.099999541035    0.000000000000
 0.000000000000    0.000000000000    0.000000000000

 0.167585408787   -0.000000040297    0.000000000000
-0.000000040297   -0.099999530072    0.000000000000
 0.000000000000    0.000000000000    0.000000000000

 0.167585263711   -0.000000034385    0.000000000000
-0.000000034385   -0.099999445366    0.000000000000
 0.000000000000    0.000000000000    0.000000000000

 0.167585252420   -0.000000026712    0.000000000000
-0.000000026712   -0.099999438989    0.000000000000
 0.000000000000    0.000000000000    0.000000000000

 0.167585252409   -0.000000038793    0.000000000000
-0.000000038793   -0.099999437239    0.000000000000
 0.000000000000    0.000000000000    0.000000000000

 0.167585293524   -0.000000040148    0.000000000000
-0.000000040148   -0.099999463680    0.000000000000
 0.000000000000    0.000000000000    0.000000000000

 0.167585321970   -0.000000017831    0.000000000000
-0.000000017831   -0.099999476435    0.000000000000
 0.000000000000    0.000000000000    0.000000000000

 0.167585383092   -0.000000002780    0.000000000000
-0.000000002780   -0.099999513841    0.000000000000
 0.000000000000    0.000000000000    0.000000000000

 0.167585446471   -0.000000013117    0.000000000000
-0.000000013117   -0.099999547934    0.000000000000
 0.000000000000    0.000000000000    0.000000000000

 0.167585525743   -0.000000013654    0.000000000000
-0.000000013654   -0.099999594224    0.000000000000
 0.000000000000    0.000000000000    0.000000000000

 0.167585618063   -0.000000015105    0.000000000000
-0.000000015105   -0.099999645506    0.000000000000
 0.000000000000    0.000000000000    0.000000000000

 0.167585708940   -0.000000016548    0.000000000000
-0.000000016548   -0.099999697828    0.000000000000
 0.000000000000    0.000000000000    0.000000000000

 0.167585783773   -0.000000005899    0.000000000000
-0.000000005899   -0.099999739111    0.000000000000
 0.000000000000    0.000000000000    0.000000000000

 0.167585866522   -0.000000002096    0.000000000000
-0.000000002096   -0.099999786858    0.000000000000
 0.000000000000    0.000000000000    0.000000000000

 0.167585933167    0.000000002491    0.000000000000
 0.000000002491   -0.099999823454    0.000000000000
 0.000000000000    0.000000000000    0.000000000000

 0.167586003800    0.000000004495    0.000000000000
 0.000000004495   -0.099999864230    0.000000000000
 0.000000000000    0.000000000000    0.000000000000

 0.167586072885    0.000000003330    0.000000000000
 0.000000003330   -0.099999902442    0.000000000000
 0.000000000000    0.000000000000    0.000000000000

 0.167586139681    0.000000001042    0.000000000000
 0.000000001042   -0.099999940697    0.000000000000
 0.000000000000    0.000000000000    0.000000000000

 0.167586208099   -0.000000001720    0.000000000000
-0.000000001720   -0.099999978865    0.000000000000
 0.000000000000    0.000000000000    0.000000000000

 0.167586275563   -0.000000004816    0.000000000000
-0.000000004816   -0.100000017162    0.000000000000
 0.000000000000    0.000000000000    0.000000000000

 0.167586341420   -0.000000007430    0.000000000000
-0.000000007430   -0.100000054162    0.000000000000
 0.000000000000    0.000000000000    0.000000000000

 0.167586408235   -0.000000008078    0.000000000000
-0.000000008078   -0.100000091869    0.000000000000
 0.000000000000    0.000000000000    0.000000000000

 0.167586472775   -0.000000009108    0.000000000000
-0.000000009108   -0.100000128380    0.000000000000
 0.000000000000    0.000000000000    0.000000000000

 0.167586535605   -0.000000008444    0.000000000000
-0.000000008444   -0.100000163673    0.000000000000
 0.000000000000    0.000000000000    0.000000000000

 0.167586596845   -0.000000006847    0.000000000000
-0.000000006847   -0.100000198521    0.000000000000
 0.000000000000    0.000000000000    0.000000000000

 0.167586651814   -0.000000007133    0.000000000000
-0.000000007133   -0.100000229266    0.000000000000
 0.000000000000    0.000000000000    0.000000000000

 0.167586705509   -0.000000004211    0.000000000000
-0.000000004211   -0.100000259925    0.000000000000
 0.000000000000    0.000000000000    0.000000000000

 0.167586750548   -0.000000006352    0.000000000000
-0.000000006352   -0.100000285077    0.000000000000
 0.000000000000    0.000000000000    0.000000000000

 0.167586794865   -0.000000005424    0.000000000000
-0.000000005424   -0.100000310355    0.000000000000
 0.000000000000    0.000000000000    0.000000000000

 0.167586834514   -0.000000008808    0.000000000000
-0.000000008808   -0.100000332600    0.000000000000
 0.000000000000    0.000000000000    0.000000000000

 0.167586872021   -0.000000011253    0.000000000000
-0.000000011253   -0.100000353848    0.000000000000
 0.000000000000    0.000000000000    0.000000000000

 0.167586910053   -0.000000013263    0.000000000000
-0.000000013263   -0.100000375307    0.000000000000
 0.000000000000    0.000000000000    0.000000000000

 0.167586944886   -0.000000013428    0.000000000000
-0.000000013428   -0.100000394994    0.000000000000
 0.000000000000    0.000000000000    0.000000000000

 0.167586977426   -0.000000014397    0.000000000000
-0.000000014397   -0.100000413383    0.000000000000
 0.000000000000    0.000000000000    0.000000000000

 0.167587006158   -0.000000014881    0.000000000000
-0.000000014881   -0.100000429560    0.000000000000
 0.000000000000    0.000000000000    0.000000000000

 0.167587035216   -0.000000015016    0.000000000000
-0.000000015016   -0.100000445938    0.000000000000
 0.000000000000    0.000000000000    0.000000000000

 0.167587060321   -0.000000014269    0.000000000000
-0.000000014269   -0.100000460043    0.000000000000
 0.000000000000    0.000000000000    0.000000000000

 0.167587084460   -0.000000013682    0.000000000000
-0.000000013682   -0.100000473731    0.000000000000
 0.000000000000    0.000000000000    0.000000000000

 0.167587113437   -0.000000011097    0.000000000000
-0.000000011097   -0.100000489873    0.000000000000
 0.000000000000    0.000000000000    0.000000000000

 0.167587129512   -0.000000009856    0.000000000000
-0.000000009856   -0.100000499278    0.000000000000
 0.000000000000    0.000000000000    0.000000000000

 0.167587063191   -0.000000011372    0.000000000000
-0.000000011372   -0.100000461667    0.000000000000
 0.000000000000    0.000000000000    0.000000000000

 0.167586972096   -0.000000008323    0.000000000000
-0.000000008323   -0.100000410291    0.000000000000
 0.000000000000    0.000000000000    0.000000000000

 0.167586861148   -0.000000007470    0.000000000000
-0.000000007470   -0.100000347516    0.000000000000
 0.000000000000    0.000000000000    0.000000000000

 0.167586721145    0.000000005711    0.000000000000
 0.000000005711   -0.100000268764    0.000000000000
 0.000000000000    0.000000000000    0.000000000000

 0.167586648928    0.000000002448    0.000000000000
 0.000000002448   -0.100000228420    0.000000000000
 0.000000000000    0.000000000000    0.000000000000

 0.167586423081   -0.000000024173    0.000000000000
-0.000000024173   -0.100000100551    0.000000000000
 0.000000000000    0.000000000000    0.000000000000

 0.167586307235   -0.000000000756    0.000000000000
-0.000000000756   -0.100000033983    0.000000000000
 0.000000000000    0.000000000000    0.000000000000

 0.167586323505    0.000000009598    0.000000000000
 0.000000009598   -0.100000043048    0.000000000000
 0.000000000000    0.000000000000    0.000000000000

 0.167586284355   -0.000000030296    0.000000000000
-0.000000030296   -0.100000021703    0.000000000000
 0.000000000000    0.000000000000    0.000000000000

 0.167586126291    0.000000007016    0.000000000000
 0.000000007016   -0.099999933707    0.000000000000
 0.000000000000    0.000000000000    0.000000000000

 0.167586222032    0.000000030138    0.000000000000
 0.000000030138   -0.099999986380    0.000000000000
 0.000000000000    0.000000000000    0.000000000000

 0.167586167025   -0.000000035404    0.000000000000
-0.000000035404   -0.099999955421    0.000000000000
 0.000000000000    0.000000000000    0.000000000000

 0.167585982099   -0.000000011906    0.000000000000
-0.000000011906   -0.099999852477    0.000000000000
 0.000000000000    0.000000000000    0.000000000000

 0.167586066791    0.000000013008    0.000000000000
 0.000000013008   -0.099999899329    0.000000000000
 0.000000000000    0.000000000000    0.000000000000

 0.167586032765   -0.000000048147    0.000000000000
-0.000000048147   -0.099999880292    0.000000000000
 0.000000000000    0.000000000000    0.000000000000

 0.167585883005   -0.000000020648    0.000000000000
-0.000000020648   -0.099999797071    0.000000000000
 0.000000000000    0.000000000000    0.000000000000

 0.167586011825    0.000000007465    0.000000000000
 0.000000007465   -0.099999868718    0.000000000000
 0.000000000000    0.000000000000    0.000000000000

 0.167586033099   -0.000000051952    0.000000000000
-0.000000051952   -0.099999880746    0.000000000000
 0.000000000000    0.000000000000    0.000000000000

 0.167585960425   -0.000000021742    0.000000000000
-0.000000021742   -0.099999840750    0.000000000000
 0.000000000000    0.000000000000    0.000000000000

 0.167586173603    0.000000016115    0.000000000000
 0.000000016115   -0.099999959713    0.000000000000
 0.000000000000    0.000000000000    0.000000000000

 0.167586258192   -0.000000030511    0.000000000000
-0.000000030511   -0.100000007338    0.000000000000
 0.000000000000    0.000000000000    0.000000000000

 0.167586206113   -0.000000004526    0.000000000000
-0.000000004526   -0.099999978594    0.000000000000
 0.000000000000    0.000000000000    0.000000000000

 0.167586447402    0.000000023527    0.000000000000
 0.000000023527   -0.100000112955    0.000000000000
 0.000000000000    0.000000000000    0.000000000000

 0.167586465245   -0.000000003684    0.000000000000
-0.000000003684   -0.100000122952    0.000000000000
 0.000000000000    0.000000000000    0.000000000000

 0.167586396471    0.000000028910    0.000000000000
 0.000000028910   -0.100000084536    0.000000000000
 0.000000000000    0.000000000000    0.000000000000

 0.167586374454    0.000000040259    0.000000000000
 0.000000040259   -0.100000075695    0.000000000000
 0.000000000000    0.000000000000    0.000000000000

 0.167586282214   -0.000000019612    0.000000000000
-0.000000019612   -0.100000023585    0.000000000000
 0.000000000000    0.000000000000    0.000000000000

 0.167586155517    0.000000016724    0.000000000000
 0.000000016724   -0.099999952273    0.000000000000
 0.000000000000    0.000000000000    0.000000000000

 0.167585774491   -0.000000007366    0.000000000000
-0.000000007366   -0.099999732925    0.000000000000
 0.000000000000    0.000000000000    0.000000000000

 0.167585549809   -0.000000014326    0.000000000000
-0.000000014326   -0.099999602030    0.000000000000
 0.000000000000    0.000000000000    0.000000000000

 0.167585300595   -0.000000040333    0.000000000000
-0.000000040333   -0.099999465173    0.000000000000
 0.000000000000    0.000000000000    0.000000000000

 0.167585184378   -0.000000052727    0.000000000000
-0.000000052727   -0.099999400301    0.000000000000
 0.000000000000    0.000000000000    0.000000000000

 0.167585101752   -0.000000053876    0.000000000000
-0.000000053876   -0.099999356254    0.000000000000
 0.000000000000    0.000000000000    0.000000000000

 0.167585230134   -0.000000012542    0.000000000000
-0.000000012542   -0.099999428402    0.000000000000
 0.000000000000    0.000000000000    0.000000000000

 0.167585340929   -0.000000008075    0.000000000000
-0.000000008075   -0.099999490953    0.000000000000
 0.000000000000    0.000000000000    0.000000000000

 0.167585491524    0.000000000503    0.000000000000
 0.000000000503   -0.099999575326    0.000000000000
 0.000000000000    0.000000000000    0.000000000000

 0.167585651000   -0.000000006308    0.000000000000
-0.000000006308   -0.099999665130    0.000000000000
 0.000000000000    0.000000000000    0.000000000000

 0.167585838634   -0.000000006877    0.000000000000
-0.000000006877   -0.099999770687    0.000000000000
 0.000000000000    0.000000000000    0.000000000000

 0.167586001853    0.000000000031    0.000000000000
 0.000000000031   -0.099999862414    0.000000000000
 0.000000000000    0.000000000000    0.000000000000

 0.167586138602    0.000000001665    0.000000000000
 0.000000001665   -0.099999939330    0.000000000000
 0.000000000000    0.000000000000    0.000000000000

 0.167586270950   -0.000000003165    0.000000000000
-0.000000003165   -0.100000013780    0.000000000000
 0.000000000000    0.000000000000    0.000000000000

 0.167586405146   -0.000000006629    0.000000000000
-0.000000006629   -0.100000089327    0.000000000000
 0.000000000000    0.000000000000    0.000000000000

 0.167586533834   -0.000000005647    0.000000000000
-0.000000005647   -0.100000161906    0.000000000000
 0.000000000000    0.000000000000    0.000000000000

 0.167586649784   -0.000000003485    0.000000000000
-0.000000003485   -0.100000227438    0.000000000000
 0.000000000000    0.000000000000    0.000000000000

 0.167586747157   -0.000000003757    0.000000000000
-0.000000003757   -0.100000282555    0.000000000000
 0.000000000000    0.000000000000    0.000000000000

 0.167586829733   -0.000000007396    0.000000000000
-0.000000007396   -0.100000329264    0.000000000000
 0.000000000000    0.000000000000    0.000000000000

 0.167586909255   -0.000000011055    0.000000000000
-0.000000011055   -0.100000374181    0.000000000000
 0.000000000000    0.000000000000    0.000000000000

 0.167586979761   -0.000000013412    0.000000000000
-0.000000013412   -0.100000413987    0.000000000000
 0.000000000000    0.000000000000    0.000000000000

 0.167587042339   -0.000000014084    0.000000000000
-0.000000014084   -0.100000449290    0.000000000000
 0.000000000000    0.000000000000    0.000000000000

 0.167587096623   -0.000000012767    0.000000000000
-0.000000012767   -0.100000480023    0.000000000000
 0.000000000000    0.000000000000    0.000000000000

 0.167587138109   -0.000000010477    0.000000000000
-0.000000010477   -0.100000503352    0.000000000000
 0.000000000000    0.000000000000    0.000000000000

 0.167587152205   -0.000000008575    0.000000000000
-0.000000008575   -0.100000511565    0.000000000000
 0.000000000000    0.000000000000    0.000000000000

 0.167587126228   -0.000000007106    0.000000000000
-0.000000007106   -0.100000496803    0.000000000000
 0.000000000000    0.000000000000    0.000000000000

 0.167587091938   -0.000000008371    0.000000000000
-0.000000008371   -0.100000477646    0.000000000000
 0.000000000000    0.000000000000    0.000000000000

 0.167587052528   -0.000000009021    0.000000000000
-0.000000009021   -0.100000455303    0.000000000000
 0.000000000000    0.000000000000    0.000000000000

 0.167587007350   -0.000000010916    0.000000000000
-0.000000010916   -0.100000429894    0.000000000000
 0.000000000000    0.000000000000    0.000000000000

 0.167586955632   -0.000000006375    0.000000000000
-0.000000006375   -0.100000400651    0.000000000000
 0.000000000000    0.000000000000    0.000000000000

 0.167586896443   -0.000000001823    0.000000000000
-0.000000001823   -0.100000367265    0.000000000000
 0.000000000000    0.000000000000    0.000000000000

 0.167586832849   -0.000000003425    0.000000000000
-0.000000003425   -0.100000331470    0.000000000000
 0.000000000000    0.000000000000    0.000000000000

 0.167586775255   -0.000000012179    0.000000000000
-0.000000012179   -0.100000298734    0.000000000000
 0.000000000000    0.000000000000    0.000000000000

 0.167586725004   -0.000000003667    0.000000000000
-0.000000003667   -0.100000270613    0.000000000000
 0.000000000000    0.000000000000    0.000000000000

 0.167586642163    0.000000024726    0.000000000000
 0.000000024726   -0.100000223015    0.000000000000
 0.000000000000    0.000000000000    0.000000000000

 0.167586558946    0.000000028248    0.000000000000
 0.000000028248   -0.100000177065    0.000000000000
 0.000000000000    0.000000000000    0.000000000000

 0.167586561827   -0.000000027429    0.000000000000
-0.000000027429   -0.100000177491    0.000000000000
 0.000000000000    0.000000000000    0.000000000000

 0.167586505705   -0.000000069261    0.000000000000
-0.000000069261   -0.100000145475    0.000000000000
 0.000000000000    0.000000000000    0.000000000000

 0.167586342348    0.000000033804    0.000000000000
 0.000000033804   -0.100000054976    0.000000000000
 0.000000000000    0.000000000000    0.000000000000

 0.167586365517   -0.000000047337    0.000000000000
-0.000000047337   -0.100000068758    0.000000000000
 0.000000000000    0.000000000000    0.000000000000

 0.167586293375   -0.000000019069    0.000000000000
-0.000000019069   -0.100000027737    0.000000000000
 0.000000000000    0.000000000000    0.000000000000

 0.167586172895   -0.000000040727    0.000000000000
-0.000000040727   -0.099999959070    0.000000000000
 0.000000000000    0.000000000000    0.000000000000

 0.167586141495   -0.000000056078    0.000000000000
-0.000000056078   -0.099999940034    0.000000000000
 0.000000000000    0.000000000000    0.000000000000

 0.167586145521    0.000000055299    0.000000000000
 0.000000055299   -0.099999943523    0.000000000000
 0.000000000000    0.000000000000    0.000000000000

 0.167586149689    0.000000044261    0.000000000000
 0.000000044261   -0.099999945011    0.000000000000
 0.000000000000    0.000000000000    0.000000000000

 0.167586225804   -0.000000015465    0.000000000000
-0.000000015465   -0.099999990045    0.000000000000
 0.000000000000    0.000000000000    0.000000000000

 0.167586206153    0.000000024122    0.000000000000
 0.000000024122   -0.099999978621    0.000000000000
 0.000000000000    0.000000000000    0.000000000000

 0.167586094252   -0.000000033935    0.000000000000
-0.000000033935   -0.099999914331    0.000000000000
 0.000000000000    0.000000000000    0.000000000000

 0.167586058179   -0.000000057609    0.000000000000
-0.000000057609   -0.099999893617    0.000000000000
 0.000000000000    0.000000000000    0.000000000000

 0.167586036749    0.000000044832    0.000000000000
 0.000000044832   -0.099999881970    0.000000000000
 0.000000000000    0.000000000000    0.000000000000

 0.167586022026    0.000000020552    0.000000000000
 0.000000020552   -0.099999872985    0.000000000000
 0.000000000000    0.000000000000    0.000000000000

 0.167586092997   -0.000000032560    0.000000000000
-0.000000032560   -0.099999915285    0.000000000000
 0.000000000000    0.000000000000    0.000000000000

 0.167586069794    0.000000005412    0.000000000000
 0.000000005412   -0.099999901179    0.000000000000
 0.000000000000    0.000000000000    0.000000000000

 0.167585969099   -0.000000047233    0.000000000000
-0.000000047233   -0.099999843908    0.000000000000
 0.000000000000    0.000000000000    0.000000000000

 0.167585939990   -0.000000070915    0.000000000000
-0.000000070915   -0.099999826143    0.000000000000
 0.000000000000    0.000000000000    0.000000000000

 0.167585936790    0.000000032910    0.000000000000
 0.000000032910   -0.099999825756    0.000000000000
 0.000000000000    0.000000000000    0.000000000000

 0.167585938948    0.000000009917    0.000000000000
 0.000000009917   -0.099999825246    0.000000000000
 0.000000000000    0.000000000000    0.000000000000

 0.167586034084   -0.000000041701    0.000000000000
-0.000000041701   -0.099999882198    0.000000000000
 0.000000000000    0.000000000000    0.000000000000

 0.167586033065   -0.000000001768    0.000000000000
-0.000000001768   -0.099999879706    0.000000000000
 0.000000000000    0.000000000000    0.000000000000

 0.167585961448   -0.000000052566    0.000000000000
-0.000000052566   -0.099999839740    0.000000000000
 0.000000000000    0.000000000000    0.000000000000

 0.167585959141   -0.000000075234    0.000000000000
-0.000000075234   -0.099999836519    0.000000000000
 0.000000000000    0.000000000000    0.000000000000

 0.167585991158    0.000000031693    0.000000000000
 0.000000031693   -0.099999856577    0.000000000000
 0.000000000000    0.000000000000    0.000000000000

 0.167586028049    0.000000008377    0.000000000000
 0.000000008377   -0.099999875671    0.000000000000
 0.000000000000    0.000000000000    0.000000000000

 0.167586162699   -0.000000038327    0.000000000000
-0.000000038327   -0.099999954844    0.000000000000
 0.000000000000    0.000000000000    0.000000000000

 0.167586203487    0.000000003814    0.000000000000
 0.000000003814   -0.099999976736    0.000000000000
 0.000000000000    0.000000000000    0.000000000000

 0.167586163956   -0.000000043932    0.000000000000
-0.000000043932   -0.099999953978    0.000000000000
 0.000000000000    0.000000000000    0.000000000000

 0.167586195330   -0.000000057768    0.000000000000
-0.000000057768   -0.099999971137    0.000000000000
 0.000000000000    0.000000000000    0.000000000000

 0.167586235121    0.000000046167    0.000000000000
 0.000000046167   -0.099999994126    0.000000000000
 0.000000000000    0.000000000000    0.000000000000

 0.167586286158    0.000000030176    0.000000000000
 0.000000030176   -0.100000022641    0.000000000000
 0.000000000000    0.000000000000    0.000000000000

 0.167586415745   -0.000000016612    0.000000000000
-0.000000016612   -0.100000097544    0.000000000000
 0.000000000000    0.000000000000    0.000000000000

 0.167586465245    0.000000021777    0.000000000000
 0.000000021777   -0.100000125395    0.000000000000
 0.000000000000    0.000000000000    0.000000000000

 0.167586419395   -0.000000019207    0.000000000000
-0.000000019207   -0.100000098494    0.000000000000
 0.000000000000    0.000000000000    0.000000000000

 0.167586449861   -0.000000033310    0.000000000000
-0.000000033310   -0.100000115375    0.000000000000
 0.000000000000    0.000000000000    0.000000000000

 0.167586464167    0.000000049328    0.000000000000
 0.000000049328   -0.100000124969    0.000000000000
 0.000000000000    0.000000000000    0.000000000000

 0.167586460566    0.000000037427    0.000000000000
 0.000000037427   -0.100000120542    0.000000000000
 0.000000000000    0.000000000000    0.000000000000

 0.167586540036   -0.000000008331    0.000000000000
-0.000000008331   -0.100000169256    0.000000000000
 0.000000000000    0.000000000000    0.000000000000

 0.167586590979    0.000000035660    0.000000000000
 0.000000035660   -0.100000195233    0.000000000000
 0.000000000000    0.000000000000    0.000000000000

 0.167586585863   -0.000000034508    0.000000000000
-0.000000034508   -0.100000191788    0.000000000000
 0.000000000000    0.000000000000    0.000000000000

 0.167586457120    0.000000036412    0.000000000000
 0.000000036412   -0.100000119337    0.000000000000
 0.000000000000    0.000000000000    0.000000000000

 0.167586335836    0.000000017243    0.000000000000
 0.000000017243   -0.100000051487    0.000000000000
 0.000000000000    0.000000000000    0.000000000000

 0.167586280145    0.000000033393    0.000000000000
 0.000000033393   -0.100000018391    0.000000000000
 0.000000000000    0.000000000000    0.000000000000

 0.167586350932    0.000000033291    0.000000000000
 0.000000033291   -0.100000059222    0.000000000000
 0.000000000000    0.000000000000    0.000000000000

 0.167586229373   -0.000000036566    0.000000000000
-0.000000036566   -0.099999987412    0.000000000000
 0.000000000000    0.000000000000    0.000000000000

 0.167585997329   -0.000000014307    0.000000000000
-0.000000014307   -0.099999861571    0.000000000000
 0.000000000000    0.000000000000    0.000000000000

 0.167585886022   -0.000000022251    0.000000000000
-0.000000022251   -0.099999794940    0.000000000000
 0.000000000000    0.000000000000    0.000000000000

 0.167585635712   -0.000000022361    0.000000000000
-0.000000022361   -0.099999659851    0.000000000000
 0.000000000000    0.000000000000    0.000000000000

 0.167585712323    0.000000031467    0.000000000000
 0.000000031467   -0.099999698588    0.000000000000
 0.000000000000    0.000000000000    0.000000000000

 0.167585611703   -0.000000040695    0.000000000000
-0.000000040695   -0.099999645319    0.000000000000
 0.000000000000    0.000000000000    0.000000000000

 0.167585321807   -0.000000020114    0.000000000000
-0.000000020114   -0.099999478648    0.000000000000
 0.000000000000    0.000000000000    0.000000000000

 0.167585344877   -0.000000003262    0.000000000000
-0.000000003262   -0.099999491838    0.000000000000
 0.000000000000    0.000000000000    0.000000000000

 0.167585152940   -0.000000065972    0.000000000000
-0.000000065972   -0.099999383382    0.000000000000
 0.000000000000    0.000000000000    0.000000000000

 0.167585005426   -0.000000013029    0.000000000000
-0.000000013029   -0.099999298702    0.000000000000
 0.000000000000    0.000000000000    0.000000000000

 0.167584978650   -0.000000020890    0.000000000000
-0.000000020890   -0.099999284210    0.000000000000
 0.000000000000    0.000000000000    0.000000000000

 0.167584984378   -0.000000002819    0.000000000000
-0.000000002819   -0.099999287223    0.000000000000
 0.000000000000    0.000000000000    0.000000000000

 0.167585090224   -0.000000031567    0.000000000000
-0.000000031567   -0.099999347233    0.000000000000
 0.000000000000    0.000000000000    0.000000000000

 0.167585179911   -0.000000029464    0.000000000000
-0.000000029464   -0.099999399585    0.000000000000
 0.000000000000    0.000000000000    0.000000000000

 0.167585220914   -0.000000022346    0.000000000000
-0.000000022346   -0.099999420325    0.000000000000
 0.000000000000    0.000000000000    0.000000000000

 0.167585308954   -0.000000008272    0.000000000000
-0.000000008272   -0.099999472748    0.000000000000
 0.000000000000    0.000000000000    0.000000000000

 0.167585387641   -0.000000002909    0.000000000000
-0.000000002909   -0.099999515102    0.000000000000
 0.000000000000    0.000000000000    0.000000000000

 0.167585462032   -0.000000000925    0.000000000000
-0.000000000925   -0.099999558513    0.000000000000
 0.000000000000    0.000000000000    0.000000000000

 0.167585536067   -0.000000000564    0.000000000000
-0.000000000564   -0.099999598997    0.000000000000
 0.000000000000    0.000000000000    0.000000000000

 0.167585615923    0.000000001152    0.000000000000
 0.000000001152   -0.099999644734    0.000000000000
 0.000000000000    0.000000000000    0.000000000000

 0.167585705235   -0.000000003766    0.000000000000
-0.000000003766   -0.099999694493    0.000000000000
 0.000000000000    0.000000000000    0.000000000000

 0.167585799441   -0.000000006757    0.000000000000
-0.000000006757   -0.099999748320    0.000000000000
 0.000000000000    0.000000000000    0.000000000000

 0.167585891036   -0.000000002048    0.000000000000
-0.000000002048   -0.099999799519    0.000000000000
 0.000000000000    0.000000000000    0.000000000000

 0.167585982165   -0.000000005803    0.000000000000
-0.000000005803   -0.099999851645    0.000000000000
 0.000000000000    0.000000000000    0.000000000000

 0.167586059035   -0.000000000652    0.000000000000
-0.000000000652   -0.099999894625    0.000000000000
 0.000000000000    0.000000000000    0.000000000000

 0.167586133794   -0.000000002215    0.000000000000
-0.000000002215   -0.099999937315    0.000000000000
 0.000000000000    0.000000000000    0.000000000000

 0.167586200719   -0.000000004044    0.000000000000
-0.000000004044   -0.099999974815    0.000000000000
 0.000000000000    0.000000000000    0.000000000000

 0.167586266558   -0.000000003394    0.000000000000
-0.000000003394   -0.100000012210    0.000000000000
 0.000000000000    0.000000000000    0.000000000000

 0.167586332429   -0.000000006712    0.000000000000
-0.000000006712   -0.100000049269    0.000000000000
 0.000000000000    0.000000000000    0.000000000000

 0.167586397474   -0.000000005223    0.000000000000
-0.000000005223   -0.100000086002    0.000000000000
 0.000000000000    0.000000000000    0.000000000000

 0.167586462761   -0.000000004661    0.000000000000
-0.000000004661   -0.100000122902    0.000000000000
 0.000000000000    0.000000000000    0.000000000000

 0.167586524738   -0.000000004111    0.000000000000
-0.000000004111   -0.100000157744    0.000000000000
 0.000000000000    0.000000000000    0.000000000000

 0.167586585361   -0.000000000976    0.000000000000
-0.000000000976   -0.100000192151    0.000000000000
 0.000000000000    0.000000000000    0.000000000000

 0.167586639317   -0.000000002413    0.000000000000
-0.000000002413   -0.100000222377    0.000000000000
 0.000000000000    0.000000000000    0.000000000000

 0.167586691933    0.000000000074    0.000000000000
 0.000000000074   -0.100000252310    0.000000000000
 0.000000000000    0.000000000000    0.000000000000

 0.167586737783   -0.000000002734    0.000000000000
-0.000000002734   -0.100000277969    0.000000000000
 0.000000000000    0.000000000000    0.000000000000

 0.167586781807   -0.000000003057    0.000000000000
-0.000000003057   -0.100000302991    0.000000000000
 0.000000000000    0.000000000000    0.000000000000

 0.167586823383   -0.000000005532    0.000000000000
-0.000000005532   -0.100000326312    0.000000000000
 0.000000000000    0.000000000000    0.000000000000

 0.167586863589   -0.000000007743    0.000000000000
-0.000000007743   -0.100000349101    0.000000000000
 0.000000000000    0.000000000000    0.000000000000

 0.167586902579   -0.000000009297    0.000000000000
-0.000000009297   -0.100000371045    0.000000000000
 0.000000000000    0.000000000000    0.000000000000

 0.167586940365   -0.000000010103    0.000000000000
-0.000000010103   -0.100000392422    0.000000000000
 0.000000000000    0.000000000000    0.000000000000

 0.167586976564   -0.000000011667    0.000000000000
-0.000000011667   -0.100000412832    0.000000000000
 0.000000000000    0.000000000000    0.000000000000

 0.167587009972   -0.000000012072    0.000000000000
-0.000000012072   -0.100000431669    0.000000000000
 0.000000000000    0.000000000000    0.000000000000

 0.167587042737   -0.000000013199    0.000000000000
-0.000000013199   -0.100000450185    0.000000000000
 0.000000000000    0.000000000000    0.000000000000

 0.167587072573   -0.000000011796    0.000000000000
-0.000000011796   -0.100000466969    0.000000000000
 0.000000000000    0.000000000000    0.000000000000

 0.167587099571   -0.000000013003    0.000000000000
-0.000000013003   -0.100000482286    0.000000000000
 0.000000000000    0.000000000000    0.000000000000

 0.167587124609   -0.000000010174    0.000000000000
-0.000000010174   -0.100000496260    0.000000000000
 0.000000000000    0.000000000000    0.000000000000

 0.167587145613   -0.000000010841    0.000000000000
-0.000000010841   -0.100000508307    0.000000000000
 0.000000000000    0.000000000000    0.000000000000

 0.167587163204   -0.000000008414    0.000000000000
-0.000000008414   -0.100000518072    0.000000000000
 0.000000000000    0.000000000000    0.000000000000

 0.167587179822   -0.000000008610    0.000000000000
-0.000000008610   -0.100000527304    0.000000000000
 0.000000000000    0.000000000000    0.000000000000

 0.167587176735   -0.000000006658    0.000000000000
-0.000000006658   -0.100000525838    0.000000000000
 0.000000000000    0.000000000000    0.000000000000

 0.167587113877   -0.000000007108    0.000000000000
-0.000000007108   -0.100000490283    0.000000000000
 0.000000000000    0.000000000000    0.000000000000

 0.167587038104   -0.000000007087    0.000000000000
-0.000000007087   -0.100000447473    0.000000000000
 0.000000000000    0.000000000000    0.000000000000

 0.167586923753   -0.000000005036    0.000000000000
-0.000000005036   -0.100000382796    0.000000000000
 0.000000000000    0.000000000000    0.000000000000

 0.167586830574   -0.000000007489    0.000000000000
-0.000000007489   -0.100000330382    0.000000000000
 0.000000000000    0.000000000000    0.000000000000

 0.167586652948    0.000000012331    0.000000000000
 0.000000012331   -0.100000229897    0.000000000000
 0.000000000000    0.000000000000    0.000000000000

 0.167586591910   -0.000000005067    0.000000000000
-0.000000005067   -0.100000197622    0.000000000000
 0.000000000000    0.000000000000    0.000000000000

 0.167586411649    0.000000018493    0.000000000000
 0.000000018493   -0.100000094037    0.000000000000
 0.000000000000    0.000000000000    0.000000000000

 0.167586332171   -0.000000023214    0.000000000000
-0.000000023214   -0.100000046098    0.000000000000
 0.000000000000    0.000000000000    0.000000000000

 0.167586202283   -0.000000011629    0.000000000000
-0.000000011629   -0.099999974325    0.000000000000
 0.000000000000    0.000000000000    0.000000000000

 0.167585894056    0.000000009689    0.000000000000
 0.000000009689   -0.099999802729    0.000000000000
 0.000000000000    0.000000000000    0.000000000000

 0.167586216123    0.000000016244    0.000000000000
 0.000000016244   -0.099999982819    0.000000000000
 0.000000000000    0.000000000000    0.000000000000

 0.167586171677   -0.000000003297    0.000000000000
-0.000000003297   -0.099999957649    0.000000000000
 0.000000000000    0.000000000000    0.000000000000

 0.167585805687   -0.000000005190    0.000000000000
-0.000000005190   -0.099999752905    0.000000000000
 0.000000000000    0.000000000000    0.000000000000

 0.167586088263   -0.000000003882    0.000000000000
-0.000000003882   -0.099999911156    0.000000000000
 0.000000000000    0.000000000000    0.000000000000

 0.167586063366   -0.000000018369    0.000000000000
-0.000000018369   -0.099999897334    0.000000000000
 0.000000000000    0.000000000000    0.000000000000

 0.167585737811   -0.000000014551    0.000000000000
-0.000000014551   -0.099999715278    0.000000000000
 0.000000000000    0.000000000000    0.000000000000

 0.167586066588   -0.000000010286    0.000000000000
-0.000000010286   -0.099999899419    0.000000000000
 0.000000000000    0.000000000000    0.000000000000

 0.167586099070   -0.000000023236    0.000000000000
-0.000000023236   -0.099999917788    0.000000000000
 0.000000000000    0.000000000000    0.000000000000

 0.167585841556   -0.000000017150    0.000000000000
-0.000000017150   -0.099999773899    0.000000000000
 0.000000000000    0.000000000000    0.000000000000

 0.167586247944   -0.000000006827    0.000000000000
-0.000000006827   -0.100000001574    0.000000000000
 0.000000000000    0.000000000000    0.000000000000

 0.167586348755   -0.000000011358    0.000000000000
-0.000000011358   -0.100000058307    0.000000000000
 0.000000000000    0.000000000000    0.000000000000

 0.167586123969   -0.000000003908    0.000000000000
-0.000000003908   -0.099999932779    0.000000000000
 0.000000000000    0.000000000000    0.000000000000

 0.167586520568    0.000000007250    0.000000000000
 0.000000007250   -0.100000154690    0.000000000000
 0.000000000000    0.000000000000    0.000000000000

 0.167586594002    0.000000008944    0.000000000000
 0.000000008944   -0.100000195706    0.000000000000
 0.000000000000    0.000000000000    0.000000000000

 0.167586340082    0.000000015364    0.000000000000
 0.000000015364   -0.100000053714    0.000000000000
 0.000000000000    0.000000000000    0.000000000000

 0.167586652305   -0.000000015889    0.000000000000
-0.000000015889   -0.100000228218    0.000000000000
 0.000000000000    0.000000000000    0.000000000000

 0.167586708471   -0.000000016316    0.000000000000
-0.000000016316   -0.100000258287    0.000000000000
 0.000000000000    0.000000000000    0.000000000000

 0.167586556001   -0.000000026048    0.000000000000
-0.000000026048   -0.100000176090    0.000000000000
 0.000000000000    0.000000000000    0.000000000000

 0.167586299260    0.000000017581    0.000000000000
 0.000000017581   -0.100000032599    0.000000000000
 0.000000000000    0.000000000000    0.000000000000

 0.167586377358    0.000000006649    0.000000000000
 0.000000006649   -0.100000078621    0.000000000000
 0.000000000000    0.000000000000    0.000000000000

 0.167585908713   -0.000000006441    0.000000000000
-0.000000006441   -0.099999811125    0.000000000000
 0.000000000000    0.000000000000    0.000000000000

 0.167585694468    0.000000026384    0.000000000000
 0.000000026384   -0.099999684980    0.000000000000
 0.000000000000    0.000000000000    0.000000000000

 0.167585473597   -0.000000047264    0.000000000000
-0.000000047264   -0.099999562487    0.000000000000
 0.000000000000    0.000000000000    0.000000000000

 0.167585221843   -0.000000027622    0.000000000000
-0.000000027622   -0.099999423105    0.000000000000
 0.000000000000    0.000000000000    0.000000000000

 0.167585002711   -0.000000007766    0.000000000000
-0.000000007766   -0.099999297336    0.000000000000
 0.000000000000    0.000000000000    0.000000000000

 0.167584953951   -0.000000031832    0.000000000000
-0.000000031832   -0.099999272466    0.000000000000
 0.000000000000    0.000000000000    0.000000000000

 0.167585036593   -0.000000020723    0.000000000000
-0.000000020723   -0.099999319893    0.000000000000
 0.000000000000    0.000000000000    0.000000000000

 0.167585276994   -0.000000009729    0.000000000000
-0.000000009729   -0.099999454718    0.000000000000
 0.000000000000    0.000000000000    0.000000000000

 0.167585430248    0.000000000793    0.000000000000
 0.000000000793   -0.099999539936    0.000000000000
 0.000000000000    0.000000000000    0.000000000000

 0.167585587135    0.000000005725    0.000000000000
 0.000000005725   -0.099999628169    0.000000000000
 0.000000000000    0.000000000000    0.000000000000

 0.167585759584    0.000000004422    0.000000000000
 0.000000004422   -0.099999725592    0.000000000000
 0.000000000000    0.000000000000    0.000000000000

 0.167585948778   -0.000000003096    0.000000000000
-0.000000003096   -0.099999832249    0.000000000000
 0.000000000000    0.000000000000    0.000000000000

 0.167586120344   -0.000000007848    0.000000000000
-0.000000007848   -0.099999928738    0.000000000000
 0.000000000000    0.000000000000    0.000000000000

 0.167586260848   -0.000000006887    0.000000000000
-0.000000006887   -0.100000007875    0.000000000000
 0.000000000000    0.000000000000    0.000000000000

 0.167586389624   -0.000000003484    0.000000000000
-0.000000003484   -0.100000080601    0.000000000000
 0.000000000000    0.000000000000    0.000000000000

 0.167586515450   -0.000000000326    0.000000000000
-0.000000000326   -0.100000151708    0.000000000000
 0.000000000000    0.000000000000    0.000000000000

 0.167586629931    0.000000000877    0.000000000000
 0.000000000877   -0.100000216416    0.000000000000
 0.000000000000    0.000000000000    0.000000000000

 0.167586727361   -0.000000000993    0.000000000000
-0.000000000993   -0.100000271488    0.000000000000
 0.000000000000    0.000000000000    0.000000000000

 0.167586814483   -0.000000004389    0.000000000000
-0.000000004389   -0.100000320688    0.000000000000
 0.000000000000    0.000000000000    0.000000000000

 0.167586895191   -0.000000006947    0.000000000000
-0.000000006947   -0.100000366230    0.000000000000
 0.000000000000    0.000000000000    0.000000000000

 0.167586969599   -0.000000009245    0.000000000000
-0.000000009245   -0.100000408194    0.000000000000
 0.000000000000    0.000000000000    0.000000000000

 0.167587040025   -0.000000010490    0.000000000000
-0.000000010490   -0.100000447918    0.000000000000
 0.000000000000    0.000000000000    0.000000000000

 0.167587100329   -0.000000010611    0.000000000000
-0.000000010611   -0.100000481983    0.000000000000
 0.000000000000    0.000000000000    0.000000000000

 0.167587149449   -0.000000009926    0.000000000000
-0.000000009926   -0.100000509750    0.000000000000
 0.000000000000    0.000000000000    0.000000000000

 0.167587187923   -0.000000008050    0.000000000000
-0.000000008050   -0.100000531466    0.000000000000
 0.000000000000    0.000000000000    0.000000000000

 0.167587199178   -0.000000004889    0.000000000000
-0.000000004889   -0.100000538113    0.000000000000
 0.000000000000    0.000000000000    0.000000000000

 0.167587170077   -0.000000005126    0.000000000000
-0.000000005126   -0.100000521666    0.000000000000
 0.000000000000    0.000000000000    0.000000000000

 0.167587136725   -0.000000006253    0.000000000000
-0.000000006253   -0.100000502838    0.000000000000
 0.000000000000    0.000000000000    0.000000000000

 0.167587102173   -0.000000005438    0.000000000000
-0.000000005438   -0.100000483310    0.000000000000
 0.000000000000    0.000000000000    0.000000000000

 0.167587063012   -0.000000004851    0.000000000000
-0.000000004851   -0.100000461313    0.000000000000
 0.000000000000    0.000000000000    0.000000000000

 0.167587018767   -0.000000002887    0.000000000000
-0.000000002887   -0.100000436276    0.000000000000
 0.000000000000    0.000000000000    0.000000000000

 0.167586965071   -0.000000006223    0.000000000000
-0.000000006223   -0.100000405987    0.000000000000
 0.000000000000    0.000000000000    0.000000000000

 0.167586903224   -0.000000008115    0.000000000000
-0.000000008115   -0.100000371131    0.000000000000
 0.000000000000    0.000000000000    0.000000000000

 0.167586852276   -0.000000001805    0.000000000000
-0.000000001805   -0.100000342372    0.000000000000
 0.000000000000    0.000000000000    0.000000000000

 0.167586810703    0.000000005271    0.000000000000
 0.000000005271   -0.100000319002    0.000000000000
 0.000000000000    0.000000000000    0.000000000000

 0.167586728920   -0.000000000959    0.000000000000
-0.000000000959   -0.100000272329    0.000000000000
 0.000000000000    0.000000000000    0.000000000000

 0.167586614269   -0.000000010902    0.000000000000
-0.000000010902   -0.100000207871    0.000000000000
 0.000000000000    0.000000000000    0.000000000000

 0.167586556632    0.000000010104    0.000000000000
 0.000000010104   -0.100000174829    0.000000000000
 0.000000000000    0.000000000000    0.000000000000

 0.167586574220    0.000000023974    0.000000000000
 0.000000023974   -0.100000185129    0.000000000000
 0.000000000000    0.000000000000    0.000000000000

 0.167586565097   -0.000000000417    0.000000000000
-0.000000000417   -0.100000179244    0.000000000000
 0.000000000000    0.000000000000    0.000000000000

 0.167586235696    0.000000018700    0.000000000000
 0.000000018700   -0.099999992380    0.000000000000
 0.000000000000    0.000000000000    0.000000000000

 0.167586081304   -0.000000077397    0.000000000000
-0.000000077397   -0.099999908284    0.000000000000
 0.000000000000    0.000000000000    0.000000000000

 0.167586156057   -0.000000069841    0.000000000000
-0.000000069841   -0.099999951273    0.000000000000
 0.000000000000    0.000000000000    0.000000000000

 0.167585896070    0.000000091294    0.000000000000
 0.000000091294   -0.099999800785    0.000000000000
 0.000000000000    0.000000000000    0.000000000000

 0.167586079017    0.000000097896    0.000000000000
 0.000000097896   -0.099999905946    0.000000000000
 0.000000000000    0.000000000000    0.000000000000

 0.167586149676   -0.000000127217    0.000000000000
-0.000000127217   -0.099999947262    0.000000000000
 0.000000000000    0.000000000000    0.000000000000

 0.167585955178   -0.000000094016    0.000000000000
-0.000000094016   -0.099999834758    0.000000000000
 0.000000000000    0.000000000000    0.000000000000

 0.167586057878    0.000000049688    0.000000000000
 0.000000049688   -0.099999895313    0.000000000000
 0.000000000000    0.000000000000    0.000000000000

 0.167586058138   -0.000000018319    0.000000000000
-0.000000018319   -0.099999894422    0.000000000000
 0.000000000000    0.000000000000    0.000000000000

 0.167585932373    0.000000120042    0.000000000000
 0.000000120042   -0.099999822811    0.000000000000
 0.000000000000    0.000000000000    0.000000000000

 0.167586124581    0.000000142647    0.000000000000
 0.000000142647   -0.099999932241    0.000000000000
 0.000000000000    0.000000000000    0.000000000000

 0.167586108373   -0.000000147255    0.000000000000
-0.000000147255   -0.099999923280    0.000000000000
 0.000000000000    0.000000000000    0.000000000000

 0.167585881969   -0.000000120744    0.000000000000
-0.000000120744   -0.099999793871    0.000000000000
 0.000000000000    0.000000000000    0.000000000000

 0.167585965559    0.000000025570    0.000000000000
 0.000000025570   -0.099999842538    0.000000000000
 0.000000000000    0.000000000000    0.000000000000

 0.167585946107   -0.000000037560    0.000000000000
-0.000000037560   -0.099999831014    0.000000000000
 0.000000000000    0.000000000000    0.000000000000

 0.167585836066    0.000000107973    0.000000000000
 0.000000107973   -0.099999768238    0.000000000000
 0.000000000000    0.000000000000    0.000000000000

 0.167586025262    0.000000135937    0.000000000000
 0.000000135937   -0.099999875505    0.000000000000
 0.000000000000    0.000000000000    0.000000000000

 0.167586025829   -0.000000157885    0.000000000000
-0.000000157885   -0.099999876673    0.000000000000
 0.000000000000    0.000000000000    0.000000000000

 0.167585819018   -0.000000129322    0.000000000000
-0.000000129322   -0.099999757585    0.000000000000
 0.000000000000    0.000000000000    0.000000000000

 0.167585929356    0.000000015843    0.000000000000
 0.000000015843   -0.099999822196    0.000000000000
 0.000000000000    0.000000000000    0.000000000000

 0.167585933920   -0.000000044578    0.000000000000
-0.000000044578   -0.099999823505    0.000000000000
 0.000000000000    0.000000000000    0.000000000000

 0.167585855556    0.000000101176    0.000000000000
 0.000000101176   -0.099999779400    0.000000000000
 0.000000000000    0.000000000000    0.000000000000

 0.167586072778    0.000000130045    0.000000000000
 0.000000130045   -0.099999901899    0.000000000000
 0.000000000000    0.000000000000    0.000000000000

 0.167586108852   -0.000000161864    0.000000000000
-0.000000161864   -0.099999923788    0.000000000000
 0.000000000000    0.000000000000    0.000000000000

 0.167585935353   -0.000000133601    0.000000000000
-0.000000133601   -0.099999823152    0.000000000000
 0.000000000000    0.000000000000    0.000000000000

 0.167586086296    0.000000015437    0.000000000000
 0.000000015437   -0.099999911114    0.000000000000
 0.000000000000    0.000000000000    0.000000000000

 0.167586128964   -0.000000044456    0.000000000000
-0.000000044456   -0.099999933991    0.000000000000
 0.000000000000    0.000000000000    0.000000000000

 0.167586086604    0.000000105425    0.000000000000
 0.000000105425   -0.099999910135    0.000000000000
 0.000000000000    0.000000000000    0.000000000000

 0.167586339313    0.000000138165    0.000000000000
 0.000000138165   -0.100000053226    0.000000000000
 0.000000000000    0.000000000000    0.000000000000

 0.167586393144   -0.000000151598    0.000000000000
-0.000000151598   -0.100000084439    0.000000000000
 0.000000000000    0.000000000000    0.000000000000

 0.167586241019   -0.000000117876    0.000000000000
-0.000000117876   -0.099999996774    0.000000000000
 0.000000000000    0.000000000000    0.000000000000

 0.167586389527    0.000000031386    0.000000000000
 0.000000031386   -0.100000082267    0.000000000000
 0.000000000000    0.000000000000    0.000000000000

 0.167586435900   -0.000000027875    0.000000000000
-0.000000027875   -0.100000108251    0.000000000000
 0.000000000000    0.000000000000    0.000000000000

 0.167586380472    0.000000117540    0.000000000000
 0.000000117540   -0.100000075834    0.000000000000
 0.000000000000    0.000000000000    0.000000000000

 0.167586618095    0.000000150404    0.000000000000
 0.000000150404   -0.100000211507    0.000000000000
 0.000000000000    0.000000000000    0.000000000000

 0.167586634640   -0.000000141242    0.000000000000
-0.000000141242   -0.100000220608    0.000000000000
 0.000000000000    0.000000000000    0.000000000000

 0.167586457586   -0.000000104290    0.000000000000
-0.000000104290   -0.100000119494    0.000000000000
 0.000000000000    0.000000000000    0.000000000000

 0.167586564499    0.000000038661    0.000000000000
 0.000000038661   -0.100000181490    0.000000000000
 0.000000000000    0.000000000000    0.000000000000

 0.167586589316   -0.000000029969    0.000000000000
-0.000000029969   -0.100000194469    0.000000000000
 0.000000000000    0.000000000000    0.000000000000

 0.167586560119    0.000000127004    0.000000000000
 0.000000127004   -0.100000178514    0.000000000000
 0.000000000000    0.000000000000    0.000000000000

 0.167586772238    0.000000119283    0.000000000000
 0.000000119283   -0.100000297935    0.000000000000
 0.000000000000    0.000000000000    0.000000000000

 0.167586789457   -0.000000150301    0.000000000000
-0.000000150301   -0.100000309703    0.000000000000
 0.000000000000    0.000000000000    0.000000000000

 0.167586635945   -0.000000112849    0.000000000000
-0.000000112849   -0.100000220052    0.000000000000
 0.000000000000    0.000000000000    0.000000000000

 0.167586756303    0.000000020581    0.000000000000
 0.000000020581   -0.100000291011    0.000000000000
 0.000000000000    0.000000000000    0.000000000000

 0.167586632691    0.000000135389    0.000000000000
 0.000000135389   -0.100000217762    0.000000000000
 0.000000000000    0.000000000000    0.000000000000

 0.167586614434   -0.000000085599    0.000000000000
-0.000000085599   -0.100000208367    0.000000000000
 0.000000000000    0.000000000000    0.000000000000

 0.167586475329   -0.000000037785    0.000000000000
-0.000000037785   -0.100000128967    0.000000000000
 0.000000000000    0.000000000000    0.000000000000

 0.167586405063    0.000000031082    0.000000000000
 0.000000031082   -0.100000089999    0.000000000000
 0.000000000000    0.000000000000    0.000000000000

 0.167586421293    0.000000015542    0.000000000000
 0.000000015542   -0.100000098278    0.000000000000
 0.000000000000    0.000000000000    0.000000000000

 0.167586276032    0.000000015947    0.000000000000
 0.000000015947   -0.100000015029    0.000000000000
 0.000000000000    0.000000000000    0.000000000000

 0.167586167819   -0.000000003347    0.000000000000
-0.000000003347   -0.099999956674    0.000000000000
 0.000000000000    0.000000000000    0.000000000000

 0.167586015437   -0.000000017688    0.000000000000
-0.000000017688   -0.099999865756    0.000000000000
 0.000000000000    0.000000000000    0.000000000000

 0.167585766613    0.000000018141    0.000000000000
 0.000000018141   -0.099999732621    0.000000000000
 0.000000000000    0.000000000000    0.000000000000

 0.167585878954   -0.000000019130    0.000000000000
-0.000000019130   -0.099999790910    0.000000000000
 0.000000000000    0.000000000000    0.000000000000

 0.167585730045   -0.000000037191    0.000000000000
-0.000000037191   -0.099999711767    0.000000000000
 0.000000000000    0.000000000000    0.000000000000

 0.167585574059    0.000000011210    0.000000000000
 0.000000011210   -0.099999622040    0.000000000000
 0.000000000000    0.000000000000    0.000000000000

 0.167585576406   -0.000000009586    0.000000000000
-0.000000009586   -0.099999622832    0.000000000000
 0.000000000000    0.000000000000    0.000000000000

 0.167585197872   -0.000000023293    0.000000000000
-0.000000023293   -0.099999408438    0.000000000000
 0.000000000000    0.000000000000    0.000000000000

 0.167585040298    0.000000020298    0.000000000000
 0.000000020298   -0.099999318731    0.000000000000
 0.000000000000    0.000000000000    0.000000000000

 0.167585060184   -0.000000027177    0.000000000000
-0.000000027177   -0.099999330158    0.000000000000
 0.000000000000    0.000000000000    0.000000000000

 0.167584931980   -0.000000054354    0.000000000000
-0.000000054354   -0.099999259428    0.000000000000
 0.000000000000    0.000000000000    0.000000000000

 0.167584847364   -0.000000022325    0.000000000000
-0.000000022325   -0.099999210917    0.000000000000
 0.000000000000    0.000000000000    0.000000000000

 0.167584799437   -0.000000031513    0.000000000000
-0.000000031513   -0.099999182319    0.000000000000
 0.000000000000    0.000000000000    0.000000000000

 0.167584859834   -0.000000032825    0.000000000000
-0.000000032825   -0.099999218856    0.000000000000
 0.000000000000    0.000000000000    0.000000000000

 0.167584923791   -0.000000005248    0.000000000000
-0.000000005248   -0.099999253828    0.000000000000
 0.000000000000    0.000000000000    0.000000000000

 0.167584997400    0.000000000926    0.000000000000
 0.000000000926   -0.099999295382    0.000000000000
 0.000000000000    0.000000000000    0.000000000000

 0.167585092623   -0.000000015466    0.000000000000
-0.000000015466   -0.099999349077    0.000000000000
 0.000000000000    0.000000000000    0.000000000000

 0.167585196971   -0.000000017683    0.000000000000
-0.000000017683   -0.099999408801    0.000000000000
 0.000000000000    0.000000000000    0.000000000000

 0.167585294135   -0.000000008673    0.000000000000
-0.000000008673   -0.099999462549    0.000000000000
 0.000000000000    0.000000000000    0.000000000000

 0.167585392182   -0.000000004598    0.000000000000
-0.000000004598   -0.099999518929    0.000000000000
 0.000000000000    0.000000000000    0.000000000000

 0.167585472793   -0.000000001127    0.000000000000
-0.000000001127   -0.099999563158    0.000000000000
 0.000000000000    0.000000000000    0.000000000000

 0.167585561122    0.000000006003    0.000000000000
 0.000000006003   -0.099999614032    0.000000000000
 0.000000000000    0.000000000000    0.000000000000

 0.167585645191    0.000000006952    0.000000000000
 0.000000006952   -0.099999660373    0.000000000000
 0.000000000000    0.000000000000    0.000000000000

 0.167585733368    0.000000007978    0.000000000000
 0.000000007978   -0.099999710853    0.000000000000
 0.000000000000    0.000000000000    0.000000000000

 0.167585824686    0.000000004295    0.000000000000
 0.000000004295   -0.099999762007    0.000000000000
 0.000000000000    0.000000000000    0.000000000000

 0.167585912307   -0.000000002400    0.000000000000
-0.000000002400   -0.099999811726    0.000000000000
 0.000000000000    0.000000000000    0.000000000000

 0.167586002521   -0.000000005637    0.000000000000
-0.000000005637   -0.099999862709    0.000000000000
 0.000000000000    0.000000000000    0.000000000000

 0.167586087897   -0.000000010811    0.000000000000
-0.000000010811   -0.099999911013    0.000000000000
 0.000000000000    0.000000000000    0.000000000000

 0.167586165672   -0.000000009259    0.000000000000
-0.000000009259   -0.099999954975    0.000000000000
 0.000000000000    0.000000000000    0.000000000000

 0.167586243212   -0.000000008533    0.000000000000
-0.000000008533   -0.099999998893    0.000000000000
 0.000000000000    0.000000000000    0.000000000000

 0.167586310821   -0.000000005628    0.000000000000
-0.000000005628   -0.100000037042    0.000000000000
 0.000000000000    0.000000000000    0.000000000000

 0.167586378332   -0.000000002563    0.000000000000
-0.000000002563   -0.100000075285    0.000000000000
 0.000000000000    0.000000000000    0.000000000000

 0.167586442375   -0.000000000204    0.000000000000
-0.000000000204   -0.100000111449    0.000000000000
 0.000000000000    0.000000000000    0.000000000000

 0.167586501916    0.000000000524    0.000000000000
 0.000000000524   -0.100000145076    0.000000000000
 0.000000000000    0.000000000000    0.000000000000

 0.167586561637    0.000000002661    0.000000000000
 0.000000002661   -0.100000178868    0.000000000000
 0.000000000000    0.000000000000    0.000000000000

 0.167586613922    0.000000000603    0.000000000000
 0.000000000603   -0.100000208280    0.000000000000
 0.000000000000    0.000000000000    0.000000000000

 0.167586665695    0.000000001648    0.000000000000
 0.000000001648   -0.100000237608    0.000000000000
 0.000000000000    0.000000000000    0.000000000000

 0.167586712369   -0.000000000835    0.000000000000
-0.000000000835   -0.100000263807    0.000000000000
 0.000000000000    0.000000000000    0.000000000000

 0.167586757539   -0.000000001627    0.000000000000
-0.000000001627   -0.100000289381    0.000000000000
 0.000000000000    0.000000000000    0.000000000000

 0.167586801126   -0.000000003214    0.000000000000
-0.000000003214   -0.100000313852    0.000000000000
 0.000000000000    0.000000000000    0.000000000000

 0.167586843035   -0.000000004047    0.000000000000
-0.000000004047   -0.100000337560    0.000000000000
 0.000000000000    0.000000000000    0.000000000000

 0.167586883651   -0.000000005136    0.000000000000
-0.000000005136   -0.100000360376    0.000000000000
 0.000000000000    0.000000000000    0.000000000000

 0.167586922219   -0.000000005569    0.000000000000
-0.000000005569   -0.100000382177    0.000000000000
 0.000000000000    0.000000000000    0.000000000000

 0.167586959863   -0.000000006715    0.000000000000
-0.000000006715   -0.100000403341    0.000000000000
 0.000000000000    0.000000000000    0.000000000000

 0.167586996309   -0.000000007151    0.000000000000
-0.000000007151   -0.100000423923    0.000000000000
 0.000000000000    0.000000000000    0.000000000000

 0.167587030802   -0.000000008292    0.000000000000
-0.000000008292   -0.100000443370    0.000000000000
 0.000000000000    0.000000000000    0.000000000000

 0.167587063946   -0.000000007468    0.000000000000
-0.000000007468   -0.100000462053    0.000000000000
 0.000000000000    0.000000000000    0.000000000000

 0.167587094745   -0.000000008532    0.000000000000
-0.000000008532   -0.100000479485    0.000000000000
 0.000000000000    0.000000000000    0.000000000000

 0.167587122753   -0.000000007267    0.000000000000
-0.000000007267   -0.100000495214    0.000000000000
 0.000000000000    0.000000000000    0.000000000000

 0.167587148311   -0.000000007924    0.000000000000
-0.000000007924   -0.100000509755    0.000000000000
 0.000000000000    0.000000000000    0.000000000000

 0.167587170467   -0.000000006998    0.000000000000
-0.000000006998   -0.100000522147    0.000000000000
 0.000000000000    0.000000000000    0.000000000000

 0.167587191443   -0.000000006707    0.000000000000
-0.000000006707   -0.100000534026    0.000000000000
 0.000000000000    0.000000000000    0.000000000000

 0.167587209172   -0.000000004707    0.000000000000
-0.000000004707   -0.100000543980    0.000000000000
 0.000000000000    0.000000000000    0.000000000000

 0.167587223190   -0.000000005017    0.000000000000
-0.000000005017   -0.100000552005    0.000000000000
 0.000000000000    0.000000000000    0.000000000000

 0.167587219846   -0.000000003318    0.000000000000
-0.000000003318   -0.100000549709    0.000000000000
 0.000000000000    0.000000000000    0.000000000000

 0.167587212533   -0.000000002895    0.000000000000
-0.000000002895   -0.100000545967    0.000000000000
 0.000000000000    0.000000000000    0.000000000000

 0.167587157675   -0.000000004180    0.000000000000
-0.000000004180   -0.100000515002    0.000000000000
 0.000000000000    0.000000000000    0.000000000000

 0.167587083851   -0.000000002663    0.000000000000
-0.000000002663   -0.100000473273    0.000000000000
 0.000000000000    0.000000000000    0.000000000000

 0.167586993414   -0.000000004942    0.000000000000
-0.000000004942   -0.100000422122    0.000000000000
 0.000000000000    0.000000000000    0.000000000000

 0.167586884865   -0.000000000873    0.000000000000
-0.000000000873   -0.100000360832    0.000000000000
 0.000000000000    0.000000000000    0.000000000000

 0.167586766903   -0.000000003403    0.000000000000
-0.000000003403   -0.100000294321    0.000000000000
 0.000000000000    0.000000000000    0.000000000000

 0.167586605895    0.000000000466    0.000000000000
 0.000000000466   -0.100000204124    0.000000000000
 0.000000000000    0.000000000000    0.000000000000

 0.167586521897    0.000000035451    0.000000000000
 0.000000035451   -0.100000158303    0.000000000000
 0.000000000000    0.000000000000    0.000000000000

 0.167586320905   -0.000000076223    0.000000000000
-0.000000076223   -0.100000043541    0.000000000000
 0.000000000000    0.000000000000    0.000000000000

 0.167586406195   -0.000000089221    0.000000000000
-0.000000089221   -0.100000090402    0.000000000000
 0.000000000000    0.000000000000    0.000000000000

 0.167585941715   -0.000000132676    0.000000000000
-0.000000132676   -0.099999830032    0.000000000000
 0.000000000000    0.000000000000    0.000000000000

 0.167585936425    0.000000005925    0.000000000000
 0.000000005925   -0.099999821433    0.000000000000
 0.000000000000    0.000000000000    0.000000000000

 0.167585984428    0.000000106778    0.000000000000
 0.000000106778   -0.099999855684    0.000000000000
 0.000000000000    0.000000000000    0.000000000000

 0.167585946156   -0.000000099062    0.000000000000
-0.000000099062   -0.099999833329    0.000000000000
 0.000000000000    0.000000000000    0.000000000000

 0.167586000046   -0.000000004194    0.000000000000
-0.000000004194   -0.099999856046    0.000000000000
 0.000000000000    0.000000000000    0.000000000000

 0.167585875529    0.000000097190    0.000000000000
 0.000000097190   -0.099999793901    0.000000000000
 0.000000000000    0.000000000000    0.000000000000

 0.167585851830   -0.000000107300    0.000000000000
-0.000000107300   -0.099999780768    0.000000000000
 0.000000000000    0.000000000000    0.000000000000

 0.167585950511   -0.000000006307    0.000000000000
-0.000000006307   -0.099999828811    0.000000000000
 0.000000000000    0.000000000000    0.000000000000

 0.167585868135    0.000000094351    0.000000000000
 0.000000094351   -0.099999790344    0.000000000000
 0.000000000000    0.000000000000    0.000000000000

 0.167585908333   -0.000000111241    0.000000000000
-0.000000111241   -0.099999813149    0.000000000000
 0.000000000000    0.000000000000    0.000000000000

 0.167586076728   -0.000000009713    0.000000000000
-0.000000009713   -0.099999900341    0.000000000000
 0.000000000000    0.000000000000    0.000000000000

 0.167586073463    0.000000094114    0.000000000000
 0.000000094114   -0.099999906234    0.000000000000
 0.000000000000    0.000000000000    0.000000000000

 0.167586190774   -0.000000106161    0.000000000000
-0.000000106161   -0.099999972240    0.000000000000
 0.000000000000    0.000000000000    0.000000000000

 0.167586406232   -0.000000000293    0.000000000000
-0.000000000293   -0.100000085802    0.000000000000
 0.000000000000    0.000000000000    0.000000000000

 0.167586406853    0.000000104020    0.000000000000
 0.000000104020   -0.100000093768    0.000000000000
 0.000000000000    0.000000000000    0.000000000000

 0.167586503659   -0.000000099578    0.000000000000
-0.000000099578   -0.100000148034    0.000000000000
 0.000000000000    0.000000000000    0.000000000000

 0.167586661164    0.000000005289    0.000000000000
 0.000000005289   -0.100000229104    0.000000000000
 0.000000000000    0.000000000000    0.000000000000

 0.167586577428    0.000000104866    0.000000000000
 0.000000104866   -0.100000189859    0.000000000000
 0.000000000000    0.000000000000    0.000000000000

 0.167586630342   -0.000000087285    0.000000000000
-0.000000087285   -0.100000219386    0.000000000000
 0.000000000000    0.000000000000    0.000000000000

 0.167586886932   -0.000000005064    0.000000000000
-0.000000005064   -0.100000355907    0.000000000000
 0.000000000000    0.000000000000    0.000000000000

 0.167586763900    0.000000129804    0.000000000000
 0.000000129804   -0.100000293325    0.000000000000
 0.000000000000    0.000000000000    0.000000000000

 0.167586675633    0.000000003789    0.000000000000
 0.000000003789   -0.100000238032    0.000000000000
 0.000000000000    0.000000000000    0.000000000000

 0.167586755979    0.000000092610    0.000000000000
 0.000000092610   -0.100000291749    0.000000000000
 0.000000000000    0.000000000000    0.000000000000

 0.167586457752   -0.000000027851    0.000000000000
-0.000000027851   -0.100000120502    0.000000000000
 0.000000000000    0.000000000000    0.000000000000

 0.167586343459    0.000000016019    0.000000000000
 0.000000016019   -0.100000057822    0.000000000000
 0.000000000000    0.000000000000    0.000000000000

 0.167586107496   -0.000000015470    0.000000000000
-0.000000015470   -0.099999925769    0.000000000000
 0.000000000000    0.000000000000    0.000000000000

 0.167585921048    0.000000021254    0.000000000000
 0.000000021254   -0.099999818018    0.000000000000
 0.000000000000    0.000000000000    0.000000000000

 0.167585506448   -0.000000003986    0.000000000000
-0.000000003986   -0.099999580412    0.000000000000
 0.000000000000    0.000000000000    0.000000000000

 0.167585402481   -0.000000024995    0.000000000000
-0.000000024995   -0.099999524387    0.000000000000
 0.000000000000    0.000000000000    0.000000000000

 0.167585132138   -0.000000000953    0.000000000000
-0.000000000953   -0.099999372544    0.000000000000
 0.000000000000    0.000000000000    0.000000000000

 0.167584838432   -0.000000030264    0.000000000000
-0.000000030264   -0.099999205106    0.000000000000
 0.000000000000    0.000000000000    0.000000000000

 0.167584722876   -0.000000017938    0.000000000000
-0.000000017938   -0.099999141675    0.000000000000
 0.000000000000    0.000000000000    0.000000000000

 0.167584787551   -0.000000015228    0.000000000000
-0.000000015228   -0.099999179141    0.000000000000
 0.000000000000    0.000000000000    0.000000000000

 0.167584951155   -0.000000011736    0.000000000000
-0.000000011736   -0.099999271149    0.000000000000
 0.000000000000    0.000000000000    0.000000000000

 0.167585124185   -0.000000000649    0.000000000000
-0.000000000649   -0.099999367906    0.000000000000
 0.000000000000    0.000000000000    0.000000000000

 0.167585329641   -0.000000009270    0.000000000000
-0.000000009270   -0.099999483427    0.000000000000
 0.000000000000    0.000000000000    0.000000000000

 0.167585525746    0.000000000475    0.000000000000
 0.000000000475   -0.099999593449    0.000000000000
 0.000000000000    0.000000000000    0.000000000000

 0.167585708739    0.000000009726    0.000000000000
 0.000000009726   -0.099999696311    0.000000000000
 0.000000000000    0.000000000000    0.000000000000

 0.167585882965    0.000000005135    0.000000000000
 0.000000005135   -0.099999794438    0.000000000000
 0.000000000000    0.000000000000    0.000000000000

 0.167586049564   -0.000000005741    0.000000000000
-0.000000005741   -0.099999888449    0.000000000000
 0.000000000000    0.000000000000    0.000000000000

 0.167586213750   -0.000000009899    0.000000000000
-0.000000009899   -0.099999981209    0.000000000000
 0.000000000000    0.000000000000    0.000000000000

 0.167586362306   -0.000000004791    0.000000000000
-0.000000004791   -0.100000065208    0.000000000000
 0.000000000000    0.000000000000    0.000000000000

 0.167586489717    0.000000001614    0.000000000000
 0.000000001614   -0.100000137297    0.000000000000
 0.000000000000    0.000000000000    0.000000000000

 0.167586599246    0.000000003017    0.000000000000
 0.000000003017   -0.100000199247    0.000000000000
 0.000000000000    0.000000000000    0.000000000000

 0.167586695945    0.000000000629    0.000000000000
 0.000000000629   -0.100000253871    0.000000000000
 0.000000000000    0.000000000000    0.000000000000

 0.167586785747   -0.000000001838    0.000000000000
-0.000000001838   -0.100000304531    0.000000000000
 0.000000000000    0.000000000000    0.000000000000

 0.167586869819   -0.000000003419    0.000000000000
-0.000000003419   -0.100000351925    0.000000000000
 0.000000000000    0.000000000000    0.000000000000

 0.167586948326   -0.000000004462    0.000000000000
-0.000000004462   -0.100000396169    0.000000000000
 0.000000000000    0.000000000000    0.000000000000

 0.167587020565   -0.000000004982    0.000000000000
-0.000000004982   -0.100000436913    0.000000000000
 0.000000000000    0.000000000000    0.000000000000

 0.167587085776   -0.000000005381    0.000000000000
-0.000000005381   -0.100000473716    0.000000000000
 0.000000000000    0.000000000000    0.000000000000

 0.167587143267   -0.000000005379    0.000000000000
-0.000000005379   -0.100000506177    0.000000000000
 0.000000000000    0.000000000000    0.000000000000

 0.167587190886   -0.000000004667    0.000000000000
-0.000000004667   -0.100000533105    0.000000000000
 0.000000000000    0.000000000000    0.000000000000

 0.167587226025   -0.000000003384    0.000000000000
-0.000000003384   -0.100000553073    0.000000000000
 0.000000000000    0.000000000000    0.000000000000

 0.167587239945   -0.000000002669    0.000000000000
-0.000000002669   -0.100000561238    0.000000000000
 0.000000000000    0.000000000000    0.000000000000

 0.167587245117   -0.000000000355    0.000000000000
-0.000000000355   -0.100000563918    0.000000000000
 0.000000000000    0.000000000000    0.000000000000

 0.167587228018   -0.000000000821    0.000000000000
-0.000000000821   -0.100000554397    0.000000000000
 0.000000000000    0.000000000000    0.000000000000

 0.167587204871   -0.000000001355    0.000000000000
-0.000000001355   -0.100000541301    0.000000000000
 0.000000000000    0.000000000000    0.000000000000

 0.167587177499   -0.000000002233    0.000000000000
-0.000000002233   -0.100000525854    0.000000000000
 0.000000000000    0.000000000000    0.000000000000

 0.167587144410   -0.000000001454    0.000000000000
-0.000000001454   -0.100000507166    0.000000000000
 0.000000000000    0.000000000000    0.000000000000

 0.167587105729   -0.000000003078    0.000000000000
-0.000000003078   -0.100000485346    0.000000000000
 0.000000000000    0.000000000000    0.000000000000

 0.167587063633   -0.000000000715    0.000000000000
-0.000000000715   -0.100000461579    0.000000000000
 0.000000000000    0.000000000000    0.000000000000

 0.167587018151    0.000000000476    0.000000000000
 0.000000000476   -0.100000435975    0.000000000000
 0.000000000000    0.000000000000    0.000000000000

 0.167586971275   -0.000000002224    0.000000000000
-0.000000002224   -0.100000409556    0.000000000000
 0.000000000000    0.000000000000    0.000000000000

 0.167586925687   -0.000000007124    0.000000000000
-0.000000007124   -0.100000383806    0.000000000000
 0.000000000000    0.000000000000    0.000000000000

 0.167586866027   -0.000000001427    0.000000000000
-0.000000001427   -0.100000350093    0.000000000000
 0.000000000000    0.000000000000    0.000000000000

 0.167586784687    0.000000010604    0.000000000000
 0.000000010604   -0.100000304090    0.000000000000
 0.000000000000    0.000000000000    0.000000000000

 0.167586719829    0.000000000843    0.000000000000
 0.000000000843   -0.100000267601    0.000000000000
 0.000000000000    0.000000000000    0.000000000000

 0.167586688785   -0.000000013400    0.000000000000
-0.000000013400   -0.100000249717    0.000000000000
 0.000000000000    0.000000000000    0.000000000000

 0.167586611100   -0.000000010290    0.000000000000
-0.000000010290   -0.100000205551    0.000000000000
 0.000000000000    0.000000000000    0.000000000000

 0.167586451487    0.000000020596    0.000000000000
 0.000000020596   -0.100000115135    0.000000000000
 0.000000000000    0.000000000000    0.000000000000

 0.167586350446    0.000000053608    0.000000000000
 0.000000053608   -0.100000058326    0.000000000000
 0.000000000000    0.000000000000    0.000000000000

 0.167586465068   -0.000000035188    0.000000000000
-0.000000035188   -0.100000123838    0.000000000000
 0.000000000000    0.000000000000    0.000000000000

 0.167586544833   -0.000000072432    0.000000000000
-0.000000072432   -0.100000168511    0.000000000000
 0.000000000000    0.000000000000    0.000000000000

 0.167586291839   -0.000000007562    0.000000000000
-0.000000007562   -0.100000026836    0.000000000000
 0.000000000000    0.000000000000    0.000000000000

 0.167585977087   -0.000000056389    0.000000000000
-0.000000056389   -0.099999847715    0.000000000000
 0.000000000000    0.000000000000    0.000000000000

 0.167586501446    0.000000132770    0.000000000000
 0.000000132770   -0.100000141403    0.000000000000
 0.000000000000    0.000000000000    0.000000000000

 0.167586335923   -0.000000154418    0.000000000000
-0.000000154418   -0.100000050914    0.000000000000
 0.000000000000    0.000000000000    0.000000000000

 0.167585167265   -0.000000287316    0.000000000000
-0.000000287316   -0.099999393540    0.000000000000
 0.000000000000    0.000000000000    0.000000000000

 0.167585261319    0.000000443542    0.000000000000
 0.000000443542   -0.099999446096    0.000000000000
 0.000000000000    0.000000000000    0.000000000000

 0.167586333856   -0.000000007354    0.000000000000
-0.000000007354   -0.100000048783    0.000000000000
 0.000000000000    0.000000000000    0.000000000000

 0.167586136868   -0.000000405074    0.000000000000
-0.000000405074   -0.099999936597    0.000000000000
 0.000000000000    0.000000000000    0.000000000000

 0.167586134687    0.000000413464    0.000000000000
 0.000000413464   -0.099999935879    0.000000000000
 0.000000000000    0.000000000000    0.000000000000

 0.167586323745    0.000000005779    0.000000000000
 0.000000005779   -0.100000042977    0.000000000000
 0.000000000000    0.000000000000    0.000000000000

 0.167585192517   -0.000000413435    0.000000000000
-0.000000413435   -0.099999408279    0.000000000000
 0.000000000000    0.000000000000    0.000000000000

 0.167585181170    0.000000412793    0.000000000000
 0.000000412793   -0.099999401739    0.000000000000
 0.000000000000    0.000000000000    0.000000000000

 0.167586288734   -0.000000009252    0.000000000000
-0.000000009252   -0.100000023365    0.000000000000
 0.000000000000    0.000000000000    0.000000000000

 0.167586068513   -0.000000419936    0.000000000000
-0.000000419936   -0.099999898312    0.000000000000
 0.000000000000    0.000000000000    0.000000000000

 0.167586070925    0.000000413377    0.000000000000
 0.000000413377   -0.099999899899    0.000000000000
 0.000000000000    0.000000000000    0.000000000000

 0.167586278470    0.000000002304    0.000000000000
 0.000000002304   -0.100000017218    0.000000000000
 0.000000000000    0.000000000000    0.000000000000

 0.167585174440   -0.000000419118    0.000000000000
-0.000000419118   -0.099999398059    0.000000000000
 0.000000000000    0.000000000000    0.000000000000

 0.167585182322    0.000000409971    0.000000000000
 0.000000409971   -0.099999402107    0.000000000000
 0.000000000000    0.000000000000    0.000000000000

 0.167586319960   -0.000000012419    0.000000000000
-0.000000012419   -0.100000041006    0.000000000000
 0.000000000000    0.000000000000    0.000000000000

 0.167586127812   -0.000000422209    0.000000000000
-0.000000422209   -0.099999931597    0.000000000000
 0.000000000000    0.000000000000    0.000000000000

 0.167586165644    0.000000409832    0.000000000000
 0.000000409832   -0.099999953500    0.000000000000
 0.000000000000    0.000000000000    0.000000000000

 0.167586408212   -0.000000000311    0.000000000000
-0.000000000311   -0.100000090427    0.000000000000
 0.000000000000    0.000000000000    0.000000000000

 0.167585347817   -0.000000421587    0.000000000000
-0.000000421587   -0.099999496198    0.000000000000
 0.000000000000    0.000000000000    0.000000000000

 0.167585393903    0.000000407149    0.000000000000
 0.000000407149   -0.099999521726    0.000000000000
 0.000000000000    0.000000000000    0.000000000000

 0.167586574625   -0.000000011882    0.000000000000
-0.000000011882   -0.100000185125    0.000000000000
 0.000000000000    0.000000000000    0.000000000000

 0.167586421457   -0.000000423176    0.000000000000
-0.000000423176   -0.100000097748    0.000000000000
 0.000000000000    0.000000000000    0.000000000000

 0.167586490054    0.000000414105    0.000000000000
 0.000000414105   -0.100000136975    0.000000000000
 0.000000000000    0.000000000000    0.000000000000

 0.167586761190    0.000000002355    0.000000000000
 0.000000002355   -0.100000290192    0.000000000000
 0.000000000000    0.000000000000    0.000000000000

 0.167585708927   -0.000000413910    0.000000000000
-0.000000413910   -0.099999700265    0.000000000000
 0.000000000000    0.000000000000    0.000000000000

 0.167585763220    0.000000411844    0.000000000000
 0.000000411844   -0.099999730688    0.000000000000
 0.000000000000    0.000000000000    0.000000000000

 0.167586931688   -0.000000002510    0.000000000000
-0.000000002510   -0.100000386769    0.000000000000
 0.000000000000    0.000000000000    0.000000000000

 0.167586769536   -0.000000418817    0.000000000000
-0.000000418817   -0.100000294658    0.000000000000
 0.000000000000    0.000000000000    0.000000000000

 0.167586809031    0.000000425016    0.000000000000
 0.000000425016   -0.100000317026    0.000000000000
 0.000000000000    0.000000000000    0.000000000000

 0.167587062254    0.000000005759    0.000000000000
 0.000000005759   -0.100000460595    0.000000000000
 0.000000000000    0.000000000000    0.000000000000

 0.167585969754   -0.000000409493    0.000000000000
-0.000000409493   -0.099999847477    0.000000000000
 0.000000000000    0.000000000000    0.000000000000

 0.167585982637    0.000000412069    0.000000000000
 0.000000412069   -0.099999854748    0.000000000000
 0.000000000000    0.000000000000    0.000000000000

 0.167587097504   -0.000000004870    0.000000000000
-0.000000004870   -0.100000480294    0.000000000000
 0.000000000000    0.000000000000    0.000000000000

 0.167586903566   -0.000000420767    0.000000000000
-0.000000420767   -0.100000369881    0.000000000000
 0.000000000000    0.000000000000    0.000000000000

 0.167586972014    0.000000407954    0.000000000000
 0.000000407954   -0.100000409040    0.000000000000
 0.000000000000    0.000000000000    0.000000000000

 0.167587235716   -0.000000004944    0.000000000000
-0.000000004944   -0.100000557883    0.000000000000
 0.000000000000    0.000000000000    0.000000000000

 0.167586179726   -0.000000390475    0.000000000000
-0.000000390475   -0.099999965862    0.000000000000
 0.000000000000    0.000000000000    0.000000000000

 0.167586231355    0.000000413289    0.000000000000
 0.000000413289   -0.099999994904    0.000000000000
 0.000000000000    0.000000000000    0.000000000000

 0.167587277768   -0.000000028996    0.000000000000
-0.000000028996   -0.100000583692    0.000000000000
 0.000000000000    0.000000000000    0.000000000000

 0.167587006761   -0.000000474040    0.000000000000
-0.000000474040   -0.100000427656    0.000000000000
 0.000000000000    0.000000000000    0.000000000000

 0.167586961081    0.000000494341    0.000000000000
 0.000000494341   -0.100000409474    0.000000000000
 0.000000000000    0.000000000000    0.000000000000

 0.167586790974    0.000000133426    0.000000000000
 0.000000133426   -0.100000307707    0.000000000000
 0.000000000000    0.000000000000    0.000000000000

 0.167586572446    0.000000004125    0.000000000000
 0.000000004125   -0.100000183788    0.000000000000
 0.000000000000    0.000000000000    0.000000000000

 0.167586568554   -0.000000000555    0.000000000000
-0.000000000555   -0.100000180814    0.000000000000
 0.000000000000    0.000000000000    0.000000000000

 0.167586686232    0.000000003732    0.000000000000
 0.000000003732   -0.100000248623    0.000000000000
 0.000000000000    0.000000000000    0.000000000000

 0.167586616665   -0.000000050565    0.000000000000
-0.000000050565   -0.100000208256    0.000000000000
 0.000000000000    0.000000000000    0.000000000000

 0.167586338801   -0.000000007689    0.000000000000
-0.000000007689   -0.100000051784    0.000000000000
 0.000000000000    0.000000000000    0.000000000000

 0.167586127565    0.000000027560    0.000000000000
 0.000000027560   -0.099999933163    0.000000000000
 0.000000000000    0.000000000000    0.000000000000

 0.167586017890    0.000000027969    0.000000000000
 0.000000027969   -0.099999869352    0.000000000000
 0.000000000000    0.000000000000    0.000000000000

 0.167586003823   -0.000000007498    0.000000000000
-0.000000007498   -0.099999863088    0.000000000000
 0.000000000000    0.000000000000    0.000000000000

 0.167586032344   -0.000000020076    0.000000000000
-0.000000020076   -0.099999875716    0.000000000000
 0.000000000000    0.000000000000    0.000000000000

 0.167585854162    0.000000028192    0.000000000000
 0.000000028192   -0.099999779309    0.000000000000
 0.000000000000    0.000000000000    0.000000000000

 0.167585757687   -0.000000047629    0.000000000000
-0.000000047629   -0.099999724585    0.000000000000
 0.000000000000    0.000000000000    0.000000000000

 0.167585647848   -0.000000017306    0.000000000000
-0.000000017306   -0.099999663328    0.000000000000
 0.000000000000    0.000000000000    0.000000000000

 0.167585383100    0.000000026380    0.000000000000
 0.000000026380   -0.099999514130    0.000000000000
 0.000000000000    0.000000000000    0.000000000000

 0.167585276743    0.000000021026    0.000000000000
 0.000000021026   -0.099999452880    0.000000000000
 0.000000000000    0.000000000000    0.000000000000

 0.167585171203   -0.000000001348    0.000000000000
-0.000000001348   -0.099999392878    0.000000000000
 0.000000000000    0.000000000000    0.000000000000

 0.167585007012   -0.000000043604    0.000000000000
-0.000000043604   -0.099999301101    0.000000000000
 0.000000000000    0.000000000000    0.000000000000

 0.167584904337   -0.000000005596    0.000000000000
-0.000000005596   -0.099999242119    0.000000000000
 0.000000000000    0.000000000000    0.000000000000

 0.167584783967    0.000000008375    0.000000000000
 0.000000008375   -0.099999175062    0.000000000000
 0.000000000000    0.000000000000    0.000000000000

 0.167584709250   -0.000000028757    0.000000000000
-0.000000028757   -0.099999133312    0.000000000000
 0.000000000000    0.000000000000    0.000000000000

 0.167584660150    0.000000008347    0.000000000000
 0.000000008347   -0.099999104447    0.000000000000
 0.000000000000    0.000000000000    0.000000000000

 0.167584730935   -0.000000006602    0.000000000000
-0.000000006602   -0.099999146151    0.000000000000
 0.000000000000    0.000000000000    0.000000000000

 0.167584815859   -0.000000010390    0.000000000000
-0.000000010390   -0.099999192705    0.000000000000
 0.000000000000    0.000000000000    0.000000000000

 0.167584900223   -0.000000011637    0.000000000000
-0.000000011637   -0.099999241459    0.000000000000
 0.000000000000    0.000000000000    0.000000000000

 0.167584995965   -0.000000009557    0.000000000000
-0.000000009557   -0.099999294872    0.000000000000
 0.000000000000    0.000000000000    0.000000000000

 0.167585079970    0.000000000400    0.000000000000
 0.000000000400   -0.099999342062    0.000000000000
 0.000000000000    0.000000000000    0.000000000000

 0.167585165657   -0.000000005615    0.000000000000
-0.000000005615   -0.099999390195    0.000000000000
 0.000000000000    0.000000000000    0.000000000000

 0.167585260275   -0.000000004106    0.000000000000
-0.000000004106   -0.099999443444    0.000000000000
 0.000000000000    0.000000000000    0.000000000000

 0.167585365787   -0.000000004885    0.000000000000
-0.000000004885   -0.099999502738    0.000000000000
 0.000000000000    0.000000000000    0.000000000000

 0.167585478384   -0.000000002223    0.000000000000
-0.000000002223   -0.099999566875    0.000000000000
 0.000000000000    0.000000000000    0.000000000000

 0.167585578037    0.000000005480    0.000000000000
 0.000000005480   -0.099999622666    0.000000000000
 0.000000000000    0.000000000000    0.000000000000

 0.167585677509    0.000000004652    0.000000000000
 0.000000004652   -0.099999679410    0.000000000000
 0.000000000000    0.000000000000    0.000000000000

 0.167585768010    0.000000005267    0.000000000000
 0.000000005267   -0.099999730173    0.000000000000
 0.000000000000    0.000000000000    0.000000000000

 0.167585849715    0.000000003969    0.000000000000
 0.000000003969   -0.099999776470    0.000000000000
 0.000000000000    0.000000000000    0.000000000000

 0.167585931950   -0.000000001451    0.000000000000
-0.000000001451   -0.099999822852    0.000000000000
 0.000000000000    0.000000000000    0.000000000000

 0.167586011065   -0.000000001726    0.000000000000
-0.000000001726   -0.099999867434    0.000000000000
 0.000000000000    0.000000000000    0.000000000000

 0.167586092561   -0.000000005907    0.000000000000
-0.000000005907   -0.099999913567    0.000000000000
 0.000000000000    0.000000000000    0.000000000000

 0.167586175003   -0.000000006315    0.000000000000
-0.000000006315   -0.099999960107    0.000000000000
 0.000000000000    0.000000000000    0.000000000000

 0.167586254677   -0.000000003625    0.000000000000
-0.000000003625   -0.100000005197    0.000000000000
 0.000000000000    0.000000000000    0.000000000000

 0.167586333467   -0.000000004689    0.000000000000
-0.000000004689   -0.100000049810    0.000000000000
 0.000000000000    0.000000000000    0.000000000000

 0.167586403901    0.000000001403    0.000000000000
 0.000000001403   -0.100000089646    0.000000000000
 0.000000000000    0.000000000000    0.000000000000

 0.167586468748   -0.000000000427    0.000000000000
-0.000000000427   -0.100000126377    0.000000000000
 0.000000000000    0.000000000000    0.000000000000

 0.167586527591    0.000000002830    0.000000000000
 0.000000002830   -0.100000159660    0.000000000000
 0.000000000000    0.000000000000    0.000000000000

 0.167586579332    0.000000001368    0.000000000000
 0.000000001368   -0.100000188901    0.000000000000
 0.000000000000    0.000000000000    0.000000000000

 0.167586629563    0.000000001072    0.000000000000
 0.000000001072   -0.100000217295    0.000000000000
 0.000000000000    0.000000000000    0.000000000000

 0.167586676042    0.000000000444    0.000000000000
 0.000000000444   -0.100000243489    0.000000000000
 0.000000000000    0.000000000000    0.000000000000

 0.167586721929   -0.000000000584    0.000000000000
-0.000000000584   -0.100000269389    0.000000000000
 0.000000000000    0.000000000000    0.000000000000

 0.167586766567   -0.000000000921    0.000000000000
-0.000000000921   -0.100000294501    0.000000000000
 0.000000000000    0.000000000000    0.000000000000

 0.167586809943   -0.000000001061    0.000000000000
-0.000000001061   -0.100000318959    0.000000000000
 0.000000000000    0.000000000000    0.000000000000

 0.167586852363   -0.000000001670    0.000000000000
-0.000000001670   -0.100000342804    0.000000000000
 0.000000000000    0.000000000000    0.000000000000

 0.167586893057   -0.000000001510    0.000000000000
-0.000000001510   -0.100000365740    0.000000000000
 0.000000000000    0.000000000000    0.000000000000

 0.167586932598   -0.000000002413    0.000000000000
-0.000000002413   -0.100000387978    0.000000000000
 0.000000000000    0.000000000000    0.000000000000

 0.167586970399   -0.000000001912    0.000000000000
-0.000000001912   -0.100000409291    0.000000000000
 0.000000000000    0.000000000000    0.000000000000

 0.167587006347   -0.000000002793    0.000000000000
-0.000000002793   -0.100000429530    0.000000000000
 0.000000000000    0.000000000000    0.000000000000

 0.167587040580   -0.000000002148    0.000000000000
-0.000000002148   -0.100000448838    0.000000000000
 0.000000000000    0.000000000000    0.000000000000

 0.167587073052   -0.000000003049    0.000000000000
-0.000000003049   -0.100000467155    0.000000000000
 0.000000000000    0.000000000000    0.000000000000

 0.167587104160   -0.000000002294    0.000000000000
-0.000000002294   -0.100000484696    0.000000000000
 0.000000000000    0.000000000000    0.000000000000

 0.167587133021   -0.000000003217    0.000000000000
-0.000000003217   -0.100000501025    0.000000000000
 0.000000000000    0.000000000000    0.000000000000

 0.167587159426   -0.000000002180    0.000000000000
-0.000000002180   -0.100000515894    0.000000000000
 0.000000000000    0.000000000000    0.000000000000

 0.167587184033   -0.000000003420    0.000000000000
-0.000000003420   -0.100000529834    0.000000000000
 0.000000000000    0.000000000000    0.000000000000

 0.167587205746   -0.000000001418    0.000000000000
-0.000000001418   -0.100000542077    0.000000000000
 0.000000000000    0.000000000000    0.000000000000

 0.167587223745   -0.000000003096    0.000000000000
-0.000000003096   -0.100000552300    0.000000000000
 0.000000000000    0.000000000000    0.000000000000

 0.167587239186   -0.000000001408    0.000000000000
-0.000000001408   -0.100000560942    0.000000000000
 0.000000000000    0.000000000000    0.000000000000

 0.167587249311   -0.000000001111    0.000000000000
-0.000000001111   -0.100000566824    0.000000000000
 0.000000000000    0.000000000000    0.000000000000

 0.167587237973   -0.000000002587    0.000000000000
-0.000000002587   -0.100000560116    0.000000000000
 0.000000000000    0.000000000000    0.000000000000

 0.167587207836   -0.000000003997    0.000000000000
-0.000000003997   -0.100000543093    0.000000000000
 0.000000000000    0.000000000000    0.000000000000

 0.167587166065   -0.000000005095    0.000000000000
-0.000000005095   -0.100000519485    0.000000000000
 0.000000000000    0.000000000000    0.000000000000

 0.167587113954   -0.000000005345    0.000000000000
-0.000000005345   -0.100000490052    0.000000000000
 0.000000000000    0.000000000000    0.000000000000

 0.167587052454   -0.000000005220    0.000000000000
-0.000000005220   -0.100000455341    0.000000000000
 0.000000000000    0.000000000000    0.000000000000

 0.167586983635   -0.000000004669    0.000000000000
-0.000000004669   -0.100000416528    0.000000000000
 0.000000000000    0.000000000000    0.000000000000

 0.167586908278   -0.000000003751    0.000000000000
-0.000000003751   -0.100000374061    0.000000000000
 0.000000000000    0.000000000000    0.000000000000

 0.167586827006   -0.000000002541    0.000000000000
-0.000000002541   -0.100000328272    0.000000000000
 0.000000000000    0.000000000000    0.000000000000

 0.167586740016   -0.000000000863    0.000000000000
-0.000000000863   -0.100000279247    0.000000000000
 0.000000000000    0.000000000000    0.000000000000

 0.167586646736    0.000000001235    0.000000000000
 0.000000001235   -0.100000226632    0.000000000000
 0.000000000000    0.000000000000    0.000000000000

 0.167586543240    0.000000002002    0.000000000000
 0.000000002002   -0.100000168175    0.000000000000
 0.000000000000    0.000000000000    0.000000000000

 0.167586424230   -0.000000000828    0.000000000000
-0.000000000828   -0.100000100877    0.000000000000
 0.000000000000    0.000000000000    0.000000000000

 0.167586286372   -0.000000006194    0.000000000000
-0.000000006194   -0.100000022893    0.000000000000
 0.000000000000    0.000000000000    0.000000000000

 0.167586130741   -0.000000007989    0.000000000000
-0.000000007989   -0.099999934887    0.000000000000
 0.000000000000    0.000000000000    0.000000000000

 0.167585965062   -0.000000001970    0.000000000000
-0.000000001970   -0.099999841268    0.000000000000
 0.000000000000    0.000000000000    0.000000000000

 0.167585794580    0.000000006062    0.000000000000
 0.000000006062   -0.099999745042    0.000000000000
 0.000000000000    0.000000000000    0.000000000000

 0.167585616058    0.000000005548    0.000000000000
 0.000000005548   -0.099999644373    0.000000000000
 0.000000000000    0.000000000000    0.000000000000

 0.167585427422   -0.000000003605    0.000000000000
-0.000000003605   -0.099999538096    0.000000000000
 0.000000000000    0.000000000000    0.000000000000

 0.167585228477   -0.000000007666    0.000000000000
-0.000000007666   -0.099999426054    0.000000000000
 0.000000000000    0.000000000000    0.000000000000

 0.167585040216   -0.000000006013    0.000000000000
-0.000000006013   -0.099999320075    0.000000000000
 0.000000000000    0.000000000000    0.000000000000

 0.167584873069   -0.000000014511    0.000000000000
-0.000000014511   -0.099999226190    0.000000000000
 0.000000000000    0.000000000000    0.000000000000

 0.167584730892   -0.000000009580    0.000000000000
-0.000000009580   -0.099999145867    0.000000000000
 0.000000000000    0.000000000000    0.000000000000

 0.167584766840   -0.000000013951    0.000000000000
-0.000000013951   -0.099999165302    0.000000000000
 0.000000000000    0.000000000000    0.000000000000

 0.167584979014   -0.000000026991    0.000000000000
-0.000000026991   -0.099999285076    0.000000000000
 0.000000000000    0.000000000000    0.000000000000

 0.167585203456   -0.000000001544    0.000000000000
-0.000000001544   -0.099999411643    0.000000000000
 0.000000000000    0.000000000000    0.000000000000

 0.167585515057   -0.000000003047    0.000000000000
-0.000000003047   -0.099999587855    0.000000000000
 0.000000000000    0.000000000000    0.000000000000

 0.167585774724   -0.000000009748    0.000000000000
-0.000000009748   -0.099999734167    0.000000000000
 0.000000000000    0.000000000000    0.000000000000

 0.167585974460   -0.000000003556    0.000000000000
-0.000000003556   -0.099999846828    0.000000000000
 0.000000000000    0.000000000000    0.000000000000

 0.167586173377    0.000000011446    0.000000000000
 0.000000011446   -0.099999959635    0.000000000000
 0.000000000000    0.000000000000    0.000000000000

 0.167586430506   -0.000000003910    0.000000000000
-0.000000003910   -0.100000104440    0.000000000000
 0.000000000000    0.000000000000    0.000000000000

 0.167586593047   -0.000000009241    0.000000000000
-0.000000009241   -0.100000196504    0.000000000000
 0.000000000000    0.000000000000    0.000000000000

 0.167586660755    0.000000043793    0.000000000000
 0.000000043793   -0.100000234641    0.000000000000
 0.000000000000    0.000000000000    0.000000000000

 0.167586843561   -0.000000024387    0.000000000000
-0.000000024387   -0.100000338117    0.000000000000
 0.000000000000    0.000000000000    0.000000000000

 0.167586764226    0.000000040980    0.000000000000
 0.000000040980   -0.100000292931    0.000000000000
 0.000000000000    0.000000000000    0.000000000000

 0.167586710845   -0.000000040247    0.000000000000
-0.000000040247   -0.100000262581    0.000000000000
 0.000000000000    0.000000000000    0.000000000000

 0.167586706194    0.000000002243    0.000000000000
 0.000000002243   -0.100000260688    0.000000000000
 0.000000000000    0.000000000000    0.000000000000

 0.167586568493    0.000000045304    0.000000000000
 0.000000045304   -0.100000182351    0.000000000000
 0.000000000000    0.000000000000    0.000000000000

 0.167586532566   -0.000000038346    0.000000000000
-0.000000038346   -0.100000162092    0.000000000000
 0.000000000000    0.000000000000    0.000000000000

 0.167586552418    0.000000002359    0.000000000000
 0.000000002359   -0.100000174001    0.000000000000
 0.000000000000    0.000000000000    0.000000000000

 0.167586357026    0.000000040598    0.000000000000
 0.000000040598   -0.100000063040    0.000000000000
 0.000000000000    0.000000000000    0.000000000000

 0.167586248840   -0.000000045736    0.000000000000
-0.000000045736   -0.100000001977    0.000000000000
 0.000000000000    0.000000000000    0.000000000000

 0.167586231835   -0.000000008356    0.000000000000
-0.000000008356   -0.099999993050    0.000000000000
 0.000000000000    0.000000000000    0.000000000000

 0.167586027154    0.000000030700    0.000000000000
 0.000000030700   -0.099999876728    0.000000000000
 0.000000000000    0.000000000000    0.000000000000

 0.167585944904   -0.000000051938    0.000000000000
-0.000000051938   -0.099999830236    0.000000000000
 0.000000000000    0.000000000000    0.000000000000

 0.167585988867   -0.000000009667    0.000000000000
-0.000000009667   -0.099999855715    0.000000000000
 0.000000000000    0.000000000000    0.000000000000

 0.167585860962    0.000000033065    0.000000000000
 0.000000033065   -0.099999782754    0.000000000000
 0.000000000000    0.000000000000    0.000000000000

 0.167585852763   -0.000000047752    0.000000000000
-0.000000047752   -0.099999778100    0.000000000000
 0.000000000000    0.000000000000    0.000000000000

 0.167585963077   -0.000000004776    0.000000000000
-0.000000004776   -0.099999841072    0.000000000000
 0.000000000000    0.000000000000    0.000000000000

 0.167585889303    0.000000038090    0.000000000000
 0.000000038090   -0.099999798700    0.000000000000
 0.000000000000    0.000000000000    0.000000000000

 0.167585919903   -0.000000041371    0.000000000000
-0.000000041371   -0.099999815947    0.000000000000
 0.000000000000    0.000000000000    0.000000000000

 0.167586053026    0.000000007913    0.000000000000
 0.000000007913   -0.099999891871    0.000000000000
 0.000000000000    0.000000000000    0.000000000000

 0.167585936814    0.000000054610    0.000000000000
 0.000000054610   -0.099999825669    0.000000000000
 0.000000000000    0.000000000000    0.000000000000

 0.167585892736   -0.000000063216    0.000000000000
-0.000000063216   -0.099999800441    0.000000000000
 0.000000000000    0.000000000000    0.000000000000

 0.167586224785   -0.000000023470    0.000000000000
-0.000000023470   -0.099999988519    0.000000000000
 0.000000000000    0.000000000000    0.000000000000

 0.167586316769   -0.000000047205    0.000000000000
-0.000000047205   -0.100000040031    0.000000000000
 0.000000000000    0.000000000000    0.000000000000

 0.167586409852   -0.000000000678    0.000000000000
-0.000000000678   -0.100000092605    0.000000000000
 0.000000000000    0.000000000000    0.000000000000

 0.167586553538    0.000000013384    0.000000000000
 0.000000013384   -0.100000173845    0.000000000000
 0.000000000000    0.000000000000    0.000000000000

 0.167586687433   -0.000000004559    0.000000000000
-0.000000004559   -0.100000249327    0.000000000000
 0.000000000000    0.000000000000    0.000000000000

 0.167586827577    0.000000001395    0.000000000000
 0.000000001395   -0.100000328452    0.000000000000
 0.000000000000    0.000000000000    0.000000000000

 0.167586940589   -0.000000004917    0.000000000000
-0.000000004917   -0.100000392239    0.000000000000
 0.000000000000    0.000000000000    0.000000000000

 0.167587040138   -0.000000002597    0.000000000000
-0.000000002597   -0.100000448423    0.000000000000
 0.000000000000    0.000000000000    0.000000000000

 0.167587121761   -0.000000003844    0.000000000000
-0.000000003844   -0.100000494489    0.000000000000
 0.000000000000    0.000000000000    0.000000000000

 0.167587186972   -0.000000003446    0.000000000000
-0.000000003446   -0.100000531317    0.000000000000
 0.000000000000    0.000000000000    0.000000000000

 0.167587232014   -0.000000001985    0.000000000000
-0.000000001985   -0.100000556780    0.000000000000
 0.000000000000    0.000000000000    0.000000000000

 0.167587199409   -0.000000005893    0.000000000000
-0.000000005893   -0.100000538345    0.000000000000
 0.000000000000    0.000000000000    0.000000000000

 0.167587168016   -0.000000008489    0.000000000000
-0.000000008489   -0.100000520628    0.000000000000
 0.000000000000    0.000000000000    0.000000000000

 0.167587124170   -0.000000009818    0.000000000000
-0.000000009818   -0.100000495875    0.000000000000
 0.000000000000    0.000000000000    0.000000000000

 0.167587069059   -0.000000010349    0.000000000000
-0.000000010349   -0.100000464766    0.000000000000
 0.000000000000    0.000000000000    0.000000000000

 0.167587003878   -0.000000009819    0.000000000000
-0.000000009819   -0.100000427985    0.000000000000
 0.000000000000    0.000000000000    0.000000000000

 0.167586931636   -0.000000007979    0.000000000000
-0.000000007979   -0.100000387235    0.000000000000
 0.000000000000    0.000000000000    0.000000000000

 0.167586853889   -0.000000005632    0.000000000000
-0.000000005632   -0.100000343378    0.000000000000
 0.000000000000    0.000000000000    0.000000000000

 0.167586770017   -0.000000002669    0.000000000000
-0.000000002669   -0.100000296061    0.000000000000
 0.000000000000    0.000000000000    0.000000000000

 0.167586677768   -0.000000000273    0.000000000000
-0.000000000273   -0.100000244001    0.000000000000
 0.000000000000    0.000000000000    0.000000000000

 0.167586571840   -0.000000000212    0.000000000000
-0.000000000212   -0.100000184195    0.000000000000
 0.000000000000    0.000000000000    0.000000000000

 0.167586451600   -0.000000002229    0.000000000000
-0.000000002229   -0.100000116290    0.000000000000
 0.000000000000    0.000000000000    0.000000000000

 0.167586323102   -0.000000004778    0.000000000000
-0.000000004778   -0.100000043714    0.000000000000
 0.000000000000    0.000000000000    0.000000000000

 0.167586187431   -0.000000006464    0.000000000000
-0.000000006464   -0.099999967102    0.000000000000
 0.000000000000    0.000000000000    0.000000000000

 0.167586033457   -0.000000005641    0.000000000000
-0.000000005641   -0.099999880163    0.000000000000
 0.000000000000    0.000000000000    0.000000000000

 0.167585855972   -0.000000000931    0.000000000000
-0.000000000931   -0.099999779902    0.000000000000
 0.000000000000    0.000000000000    0.000000000000

 0.167585674406    0.000000003744    0.000000000000
 0.000000003744   -0.099999677369    0.000000000000
 0.000000000000    0.000000000000    0.000000000000

 0.167585508233    0.000000001651    0.000000000000
 0.000000001651   -0.099999583801    0.000000000000
 0.000000000000    0.000000000000    0.000000000000

 0.167585348359   -0.000000005565    0.000000000000
-0.000000005565   -0.099999493997    0.000000000000
 0.000000000000    0.000000000000    0.000000000000

 0.167585167334   -0.000000019235    0.000000000000
-0.000000019235   -0.099999392066    0.000000000000
 0.000000000000    0.000000000000    0.000000000000

 0.167584997723   -0.000000015211    0.000000000000
-0.000000015211   -0.099999296004    0.000000000000
 0.000000000000    0.000000000000    0.000000000000

 0.167584910561   -0.000000028787    0.000000000000
-0.000000028787   -0.099999246504    0.000000000000
 0.000000000000    0.000000000000    0.000000000000

 0.167585080567   -0.000000020211    0.000000000000
-0.000000020211   -0.099999341902    0.000000000000
 0.000000000000    0.000000000000    0.000000000000

 0.167585356067   -0.000000021857    0.000000000000
-0.000000021857   -0.099999497891    0.000000000000
 0.000000000000    0.000000000000    0.000000000000

 0.167585632699   -0.000000009348    0.000000000000
-0.000000009348   -0.099999654197    0.000000000000
 0.000000000000    0.000000000000    0.000000000000

 0.167585795080   -0.000000004276    0.000000000000
-0.000000004276   -0.099999745738    0.000000000000
 0.000000000000    0.000000000000    0.000000000000

 0.167586116005   -0.000000011950    0.000000000000
-0.000000011950   -0.099999926860    0.000000000000
 0.000000000000    0.000000000000    0.000000000000

 0.167586334170    0.000000020401    0.000000000000
 0.000000020401   -0.100000050357    0.000000000000
 0.000000000000    0.000000000000    0.000000000000

 0.167586421435    0.000000006414    0.000000000000
 0.000000006414   -0.100000099747    0.000000000000
 0.000000000000    0.000000000000    0.000000000000

 0.167586641387   -0.000000017050    0.000000000000
-0.000000017050   -0.100000223337    0.000000000000
 0.000000000000    0.000000000000    0.000000000000

 0.167586675581   -0.000000005982    0.000000000000
-0.000000005982   -0.100000243105    0.000000000000
 0.000000000000    0.000000000000    0.000000000000

 0.167586511092    0.000000030544    0.000000000000
 0.000000030544   -0.100000150071    0.000000000000
 0.000000000000    0.000000000000    0.000000000000

 0.167586470904   -0.000000015640    0.000000000000
-0.000000015640   -0.100000127379    0.000000000000
 0.000000000000    0.000000000000    0.000000000000

 0.167586541383    0.000000005087    0.000000000000
 0.000000005087   -0.100000167575    0.000000000000
 0.000000000000    0.000000000000    0.000000000000

 0.167586330365    0.000000028225    0.000000000000
 0.000000028225   -0.100000048054    0.000000000000
 0.000000000000    0.000000000000    0.000000000000

 0.167586243759   -0.000000033910    0.000000000000
-0.000000033910   -0.099999999207    0.000000000000
 0.000000000000    0.000000000000    0.000000000000

 0.167586282557   -0.000000011022    0.000000000000
-0.000000011022   -0.100000021521    0.000000000000
 0.000000000000    0.000000000000    0.000000000000

 0.167586054046    0.000000012844    0.000000000000
 0.000000012844   -0.099999891974    0.000000000000
 0.000000000000    0.000000000000    0.000000000000

 0.167585980477   -0.000000047725    0.000000000000
-0.000000047725   -0.099999850369    0.000000000000
 0.000000000000    0.000000000000    0.000000000000

 0.167586069073   -0.000000018135    0.000000000000
-0.000000018135   -0.099999900799    0.000000000000
 0.000000000000    0.000000000000    0.000000000000

 0.167585911602    0.000000012431    0.000000000000
 0.000000012431   -0.099999811434    0.000000000000
 0.000000000000    0.000000000000    0.000000000000

 0.167585909773   -0.000000044091    0.000000000000
-0.000000044091   -0.099999810407    0.000000000000
 0.000000000000    0.000000000000    0.000000000000

 0.167586060918   -0.000000011891    0.000000000000
-0.000000011891   -0.099999896189    0.000000000000
 0.000000000000    0.000000000000    0.000000000000

 0.167585955816    0.000000021121    0.000000000000
 0.000000021121   -0.099999836378    0.000000000000
 0.000000000000    0.000000000000    0.000000000000

 0.167585996220   -0.000000032534    0.000000000000
-0.000000032534   -0.099999859152    0.000000000000
 0.000000000000    0.000000000000    0.000000000000

 0.167586175452    0.000000002833    0.000000000000
 0.000000002833   -0.099999960776    0.000000000000
 0.000000000000    0.000000000000    0.000000000000

 0.167586065983    0.000000037869    0.000000000000
 0.000000037869   -0.099999898553    0.000000000000
 0.000000000000    0.000000000000    0.000000000000

 0.167586070631   -0.000000023846    0.000000000000
-0.000000023846   -0.099999901038    0.000000000000
 0.000000000000    0.000000000000    0.000000000000

 0.167586237006   -0.000000021762    0.000000000000
-0.000000021762   -0.099999995021    0.000000000000
 0.000000000000    0.000000000000    0.000000000000

 0.167586207899   -0.000000001166    0.000000000000
-0.000000001166   -0.099999978262    0.000000000000
 0.000000000000    0.000000000000    0.000000000000

 0.167586535068   -0.000000009951    0.000000000000
-0.000000009951   -0.100000163166    0.000000000000
 0.000000000000    0.000000000000    0.000000000000

 0.167586602811    0.000000009907    0.000000000000
 0.000000009907   -0.100000201717    0.000000000000
 0.000000000000    0.000000000000    0.000000000000

 0.167586753901   -0.000000001115    0.000000000000
-0.000000001115   -0.100000286826    0.000000000000
 0.000000000000    0.000000000000    0.000000000000

 0.167586873187   -0.000000004616    0.000000000000
-0.000000004616   -0.100000354236    0.000000000000
 0.000000000000    0.000000000000    0.000000000000

 0.167586984780   -0.000000006421    0.000000000000
-0.000000006421   -0.100000417180    0.000000000000
 0.000000000000    0.000000000000    0.000000000000

 0.167587076939   -0.000000006979    0.000000000000
-0.000000006979   -0.100000469221    0.000000000000
 0.000000000000    0.000000000000    0.000000000000

 0.167587145974   -0.000000006805    0.000000000000
-0.000000006805   -0.100000508165    0.000000000000
 0.000000000000    0.000000000000    0.000000000000

 0.167587152570   -0.000000009187    0.000000000000
-0.000000009187   -0.100000511914    0.000000000000
 0.000000000000    0.000000000000    0.000000000000

 0.167587117142   -0.000000011506    0.000000000000
-0.000000011506   -0.100000491924    0.000000000000
 0.000000000000    0.000000000000    0.000000000000

 0.167587067774   -0.000000013489    0.000000000000
-0.000000013489   -0.100000464091    0.000000000000
 0.000000000000    0.000000000000    0.000000000000

 0.167587009732   -0.000000013674    0.000000000000
-0.000000013674   -0.100000431346    0.000000000000
 0.000000000000    0.000000000000    0.000000000000

 0.167586943481   -0.000000012155    0.000000000000
-0.000000012155   -0.100000393954    0.000000000000
 0.000000000000    0.000000000000    0.000000000000

 0.167586868615   -0.000000009259    0.000000000000
-0.000000009259   -0.100000351673    0.000000000000
 0.000000000000    0.000000000000    0.000000000000

 0.167586787915   -0.000000005253    0.000000000000
-0.000000005253   -0.100000306092    0.000000000000
 0.000000000000    0.000000000000    0.000000000000

 0.167586697330   -0.000000003541    0.000000000000
-0.000000003541   -0.100000254910    0.000000000000
 0.000000000000    0.000000000000    0.000000000000

 0.167586590124   -0.000000004635    0.000000000000
-0.000000004635   -0.100000194344    0.000000000000
 0.000000000000    0.000000000000    0.000000000000

 0.167586467915   -0.000000006372    0.000000000000
-0.000000006372   -0.100000125355    0.000000000000
 0.000000000000    0.000000000000    0.000000000000

 0.167586337164   -0.000000005662    0.000000000000
-0.000000005662   -0.100000051617    0.000000000000
 0.000000000000    0.000000000000    0.000000000000

 0.167586204102   -0.000000001603    0.000000000000
-0.000000001603   -0.099999976616    0.000000000000
 0.000000000000    0.000000000000    0.000000000000

 0.167586068328    0.000000001109    0.000000000000
 0.000000001109   -0.099999900059    0.000000000000
 0.000000000000    0.000000000000    0.000000000000

 0.167585918896   -0.000000002384    0.000000000000
-0.000000002384   -0.099999815763    0.000000000000
 0.000000000000    0.000000000000    0.000000000000

 0.167585747837   -0.000000007692    0.000000000000
-0.000000007692   -0.099999719261    0.000000000000
 0.000000000000    0.000000000000    0.000000000000

 0.167585573053   -0.000000005663    0.000000000000
-0.000000005663   -0.099999620653    0.000000000000
 0.000000000000    0.000000000000    0.000000000000

 0.167585418615   -0.000000004550    0.000000000000
-0.000000004550   -0.099999533611    0.000000000000
 0.000000000000    0.000000000000    0.000000000000

 0.167585286071   -0.000000018202    0.000000000000
-0.000000018202   -0.099999458757    0.000000000000
 0.000000000000    0.000000000000    0.000000000000

 0.167585184475   -0.000000032159    0.000000000000
-0.000000032159   -0.099999401284    0.000000000000
 0.000000000000    0.000000000000    0.000000000000

 0.167585050917   -0.000000028668    0.000000000000
-0.000000028668   -0.099999325338    0.000000000000
 0.000000000000    0.000000000000    0.000000000000

 0.167585249820   -0.000000037232    0.000000000000
-0.000000037232   -0.099999437508    0.000000000000
 0.000000000000    0.000000000000    0.000000000000

 0.167585437778   -0.000000023993    0.000000000000
-0.000000023993   -0.099999543713    0.000000000000
 0.000000000000    0.000000000000    0.000000000000

 0.167585660472   -0.000000012575    0.000000000000
-0.000000012575   -0.099999669877    0.000000000000
 0.000000000000    0.000000000000    0.000000000000

 0.167585960513   -0.000000014433    0.000000000000
-0.000000014433   -0.099999839345    0.000000000000
 0.000000000000    0.000000000000    0.000000000000

 0.167586224004    0.000000005407    0.000000000000
 0.000000005407   -0.099999987943    0.000000000000
 0.000000000000    0.000000000000    0.000000000000

 0.167586325632    0.000000010335    0.000000000000
 0.000000010335   -0.100000045906    0.000000000000
 0.000000000000    0.000000000000    0.000000000000

 0.167586480977    0.000000021347    0.000000000000
 0.000000021347   -0.100000133318    0.000000000000
 0.000000000000    0.000000000000    0.000000000000

 0.167586430702    0.000000009117    0.000000000000
 0.000000009117   -0.100000104800    0.000000000000
 0.000000000000    0.000000000000    0.000000000000

 0.167586431598    0.000000005110    0.000000000000
 0.000000005110   -0.100000105015    0.000000000000
 0.000000000000    0.000000000000    0.000000000000

 0.167586333866    0.000000013166    0.000000000000
 0.000000013166   -0.100000050207    0.000000000000
 0.000000000000    0.000000000000    0.000000000000

 0.167586247152   -0.000000014915    0.000000000000
-0.000000014915   -0.100000001370    0.000000000000
 0.000000000000    0.000000000000    0.000000000000

 0.167586191505   -0.000000009382    0.000000000000
-0.000000009382   -0.099999969491    0.000000000000
 0.000000000000    0.000000000000    0.000000000000

 0.167586080803   -0.000000005241    0.000000000000
-0.000000005241   -0.099999907342    0.000000000000
 0.000000000000    0.000000000000    0.000000000000

 0.167586011785   -0.000000036229    0.000000000000
-0.000000036229   -0.099999868301    0.000000000000
 0.000000000000    0.000000000000    0.000000000000

 0.167585999684   -0.000000023127    0.000000000000
-0.000000023127   -0.099999860989    0.000000000000
 0.000000000000    0.000000000000    0.000000000000

 0.167585961896   -0.000000009156    0.000000000000
-0.000000009156   -0.099999840120    0.000000000000
 0.000000000000    0.000000000000    0.000000000000

 0.167585971797   -0.000000035060    0.000000000000
-0.000000035060   -0.099999845741    0.000000000000
 0.000000000000    0.000000000000    0.000000000000

 0.167586025189   -0.000000018870    0.000000000000
-0.000000018870   -0.099999875458    0.000000000000
 0.000000000000    0.000000000000    0.000000000000

 0.167586038038   -0.000000001457    0.000000000000
-0.000000001457   -0.099999883172    0.000000000000
 0.000000000000    0.000000000000    0.000000000000

 0.167586087416   -0.000000023842    0.000000000000
-0.000000023842   -0.099999911015    0.000000000000
 0.000000000000    0.000000000000    0.000000000000

 0.167586167179   -0.000000004355    0.000000000000
-0.000000004355   -0.099999955540    0.000000000000
 0.000000000000    0.000000000000    0.000000000000

 0.167586185781    0.000000015547    0.000000000000
 0.000000015547   -0.099999966471    0.000000000000
 0.000000000000    0.000000000000    0.000000000000

 0.167586221163   -0.000000010348    0.000000000000
-0.000000010348   -0.099999986338    0.000000000000
 0.000000000000    0.000000000000    0.000000000000

 0.167586289294   -0.000000010108    0.000000000000
-0.000000010108   -0.100000024112    0.000000000000
 0.000000000000    0.000000000000    0.000000000000

 0.167586322885   -0.000000009361    0.000000000000
-0.000000009361   -0.100000043300    0.000000000000
 0.000000000000    0.000000000000    0.000000000000

 0.167586388777   -0.000000021544    0.000000000000
-0.000000021544   -0.100000080749    0.000000000000
 0.000000000000    0.000000000000    0.000000000000

 0.167586528340   -0.000000008805    0.000000000000
-0.000000008805   -0.100000159318    0.000000000000
 0.000000000000    0.000000000000    0.000000000000

 0.167586683896    0.000000007137    0.000000000000
 0.000000007137   -0.100000247426    0.000000000000
 0.000000000000    0.000000000000    0.000000000000

 0.167586791134   -0.000000004584    0.000000000000
-0.000000004584   -0.100000307911    0.000000000000
 0.000000000000    0.000000000000    0.000000000000

 0.167586918792   -0.000000006354    0.000000000000
-0.000000006354   -0.100000379970    0.000000000000
 0.000000000000    0.000000000000    0.000000000000

 0.167587019481   -0.000000010642    0.000000000000
-0.000000010642   -0.100000436814    0.000000000000
 0.000000000000    0.000000000000    0.000000000000

 0.167587099998   -0.000000009833    0.000000000000
-0.000000009833   -0.100000482269    0.000000000000
 0.000000000000    0.000000000000    0.000000000000

 0.167587040640   -0.000000013291    0.000000000000
-0.000000013291   -0.100000448786    0.000000000000
 0.000000000000    0.000000000000    0.000000000000

 0.167586995761   -0.000000015092    0.000000000000
-0.000000015092   -0.100000423503    0.000000000000
 0.000000000000    0.000000000000    0.000000000000

 0.167586937221   -0.000000014446    0.000000000000
-0.000000014446   -0.100000390452    0.000000000000
 0.000000000000    0.000000000000    0.000000000000

 0.167586870885   -0.000000011900    0.000000000000
-0.000000011900   -0.100000352982    0.000000000000
 0.000000000000    0.000000000000    0.000000000000

 0.167586795319   -0.000000009203    0.000000000000
-0.000000009203   -0.100000310269    0.000000000000
 0.000000000000    0.000000000000    0.000000000000

 0.167586703420   -0.000000008975    0.000000000000
-0.000000008975   -0.100000258280    0.000000000000
 0.000000000000    0.000000000000    0.000000000000

 0.167586593805   -0.000000010112    0.000000000000
-0.000000010112   -0.100000196313    0.000000000000
 0.000000000000    0.000000000000    0.000000000000

 0.167586470943   -0.000000009888    0.000000000000
-0.000000009888   -0.100000126948    0.000000000000
 0.000000000000    0.000000000000    0.000000000000

 0.167586342132   -0.000000006321    0.000000000000
-0.000000006321   -0.100000054326    0.000000000000
 0.000000000000    0.000000000000    0.000000000000

 0.167586210664   -0.000000001282    0.000000000000
-0.000000001282   -0.099999980283    0.000000000000
 0.000000000000    0.000000000000    0.000000000000

 0.167586074389    0.000000002295    0.000000000000
 0.000000002295   -0.099999903552    0.000000000000
 0.000000000000    0.000000000000    0.000000000000

 0.167585938396    0.000000002259    0.000000000000
 0.000000002259   -0.099999826976    0.000000000000
 0.000000000000    0.000000000000    0.000000000000

 0.167585808488   -0.000000004080    0.000000000000
-0.000000004080   -0.099999753834    0.000000000000
 0.000000000000    0.000000000000    0.000000000000

 0.167585666957   -0.000000015074    0.000000000000
-0.000000015074   -0.099999674079    0.000000000000
 0.000000000000    0.000000000000    0.000000000000

 0.167585503804   -0.000000021751    0.000000000000
-0.000000021751   -0.099999581771    0.000000000000
 0.000000000000    0.000000000000    0.000000000000

 0.167585384322   -0.000000020391    0.000000000000
-0.000000020391   -0.099999513709    0.000000000000
 0.000000000000    0.000000000000    0.000000000000

 0.167585336800   -0.000000028318    0.000000000000
-0.000000028318   -0.099999486404    0.000000000000
 0.000000000000    0.000000000000    0.000000000000

 0.167585486935   -0.000000027295    0.000000000000
-0.000000027295   -0.099999571657    0.000000000000
 0.000000000000    0.000000000000    0.000000000000

 0.167585822391   -0.000000023726    0.000000000000
-0.000000023726   -0.099999761379    0.000000000000
 0.000000000000    0.000000000000    0.000000000000

 0.167586038718    0.000000006818    0.000000000000
 0.000000006818   -0.099999883599    0.000000000000
 0.000000000000    0.000000000000    0.000000000000

 0.167586252025   -0.000000003500    0.000000000000
-0.000000003500   -0.100000004023    0.000000000000
 0.000000000000    0.000000000000    0.000000000000

 0.167586202563    0.000000002560    0.000000000000
 0.000000002560   -0.099999975983    0.000000000000
 0.000000000000    0.000000000000    0.000000000000

 0.167586128786   -0.000000004991    0.000000000000
-0.000000004991   -0.099999934244    0.000000000000
 0.000000000000    0.000000000000    0.000000000000

 0.167586070512   -0.000000018928    0.000000000000
-0.000000018928   -0.099999901426    0.000000000000
 0.000000000000    0.000000000000    0.000000000000

 0.167585991054   -0.000000019115    0.000000000000
-0.000000019115   -0.099999856421    0.000000000000
 0.000000000000    0.000000000000    0.000000000000

 0.167585925228   -0.000000024853    0.000000000000
-0.000000024853   -0.099999818964    0.000000000000
 0.000000000000    0.000000000000    0.000000000000

 0.167585939806   -0.000000028795    0.000000000000
-0.000000028795   -0.099999827507    0.000000000000
 0.000000000000    0.000000000000    0.000000000000

 0.167585959042   -0.000000021264    0.000000000000
-0.000000021264   -0.099999838446    0.000000000000
 0.000000000000    0.000000000000    0.000000000000

 0.167585977209   -0.000000023230    0.000000000000
-0.000000023230   -0.099999848517    0.000000000000
 0.000000000000    0.000000000000    0.000000000000

 0.167586052584   -0.000000023810    0.000000000000
-0.000000023810   -0.099999891388    0.000000000000
 0.000000000000    0.000000000000    0.000000000000

 0.167586116837   -0.000000012554    0.000000000000
-0.000000012554   -0.099999927645    0.000000000000
 0.000000000000    0.000000000000    0.000000000000

 0.167586163667   -0.000000010990    0.000000000000
-0.000000010990   -0.099999953751    0.000000000000
 0.000000000000    0.000000000000    0.000000000000

 0.167586248262   -0.000000008862    0.000000000000
-0.000000008862   -0.100000001722    0.000000000000
 0.000000000000    0.000000000000    0.000000000000

 0.167586300860    0.000000001598    0.000000000000
 0.000000001598   -0.100000031335    0.000000000000
 0.000000000000    0.000000000000    0.000000000000

 0.167586329585   -0.000000008315    0.000000000000
-0.000000008315   -0.100000047106    0.000000000000
 0.000000000000    0.000000000000    0.000000000000

 0.167586424972   -0.000000021688    0.000000000000
-0.000000021688   -0.100000101008    0.000000000000
 0.000000000000    0.000000000000    0.000000000000

 0.167586556006   -0.000000013322    0.000000000000
-0.000000013322   -0.100000174922    0.000000000000
 0.000000000000    0.000000000000    0.000000000000

 0.167586717313   -0.000000000621    0.000000000000
-0.000000000621   -0.100000266269    0.000000000000
 0.000000000000    0.000000000000    0.000000000000

 0.167586838363   -0.000000005100    0.000000000000
-0.000000005100   -0.100000334583    0.000000000000
 0.000000000000    0.000000000000    0.000000000000

 0.167586950576   -0.000000010804    0.000000000000
-0.000000010804   -0.100000397948    0.000000000000
 0.000000000000    0.000000000000    0.000000000000

 0.167586962921   -0.000000012685    0.000000000000
-0.000000012685   -0.100000404951    0.000000000000
 0.000000000000    0.000000000000    0.000000000000

 0.167586901797   -0.000000012543    0.000000000000
-0.000000012543   -0.100000370443    0.000000000000
 0.000000000000    0.000000000000    0.000000000000

 0.167586855184   -0.000000012286    0.000000000000
-0.000000012286   -0.100000344168    0.000000000000
 0.000000000000    0.000000000000    0.000000000000

 0.167586789369   -0.000000012930    0.000000000000
-0.000000012930   -0.100000306915    0.000000000000
 0.000000000000    0.000000000000    0.000000000000

 0.167586696526   -0.000000016060    0.000000000000
-0.000000016060   -0.100000254384    0.000000000000
 0.000000000000    0.000000000000    0.000000000000

 0.167586581650   -0.000000016583    0.000000000000
-0.000000016583   -0.100000189441    0.000000000000
 0.000000000000    0.000000000000    0.000000000000

 0.167586458279   -0.000000012668    0.000000000000
-0.000000012668   -0.100000119784    0.000000000000
 0.000000000000    0.000000000000    0.000000000000

 0.167586335137   -0.000000006145    0.000000000000
-0.000000006145   -0.100000050365    0.000000000000
 0.000000000000    0.000000000000    0.000000000000

 0.167586211205   -0.000000001020    0.000000000000
-0.000000001020   -0.099999980545    0.000000000000
 0.000000000000    0.000000000000    0.000000000000

 0.167586082131   -0.000000000455    0.000000000000
-0.000000000455   -0.099999907865    0.000000000000
 0.000000000000    0.000000000000    0.000000000000

 0.167585950263   -0.000000002482    0.000000000000
-0.000000002482   -0.099999833687    0.000000000000
 0.000000000000    0.000000000000    0.000000000000

 0.167585826001   -0.000000004296    0.000000000000
-0.000000004296   -0.099999763799    0.000000000000
 0.000000000000    0.000000000000    0.000000000000

 0.167585716894   -0.000000010016    0.000000000000
-0.000000010016   -0.099999702298    0.000000000000
 0.000000000000    0.000000000000    0.000000000000

 0.167585624910   -0.000000025660    0.000000000000
-0.000000025660   -0.099999650128    0.000000000000
 0.000000000000    0.000000000000    0.000000000000

 0.167585535861   -0.000000041483    0.000000000000
-0.000000041483   -0.099999599424    0.000000000000
 0.000000000000    0.000000000000    0.000000000000

 0.167585433517   -0.000000044928    0.000000000000
-0.000000044928   -0.099999541356    0.000000000000
 0.000000000000    0.000000000000    0.000000000000

 0.167585644234   -0.000000034422    0.000000000000
-0.000000034422   -0.099999660410    0.000000000000
 0.000000000000    0.000000000000    0.000000000000

 0.167585887587   -0.000000010324    0.000000000000
-0.000000010324   -0.099999798347    0.000000000000
 0.000000000000    0.000000000000    0.000000000000

 0.167586043218   -0.000000011307    0.000000000000
-0.000000011307   -0.099999886281    0.000000000000
 0.000000000000    0.000000000000    0.000000000000

 0.167585972971   -0.000000021191    0.000000000000
-0.000000021191   -0.099999846373    0.000000000000
 0.000000000000    0.000000000000    0.000000000000

 0.167585949515   -0.000000020377    0.000000000000
-0.000000020377   -0.099999832825    0.000000000000
 0.000000000000    0.000000000000    0.000000000000

 0.167585877772   -0.000000025606    0.000000000000
-0.000000025606   -0.099999792243    0.000000000000
 0.000000000000    0.000000000000    0.000000000000

 0.167585877611   -0.000000028501    0.000000000000
-0.000000028501   -0.099999792168    0.000000000000
 0.000000000000    0.000000000000    0.000000000000

 0.167585891471   -0.000000019145    0.000000000000
-0.000000019145   -0.099999800070    0.000000000000
 0.000000000000    0.000000000000    0.000000000000

 0.167585913724   -0.000000023953    0.000000000000
-0.000000023953   -0.099999812766    0.000000000000
 0.000000000000    0.000000000000    0.000000000000

 0.167585995379   -0.000000026860    0.000000000000
-0.000000026860   -0.099999859004    0.000000000000
 0.000000000000    0.000000000000    0.000000000000

 0.167586073497   -0.000000013958    0.000000000000
-0.000000013958   -0.099999903146    0.000000000000
 0.000000000000    0.000000000000    0.000000000000

 0.167586140916   -0.000000014998    0.000000000000
-0.000000014998   -0.099999941155    0.000000000000
 0.000000000000    0.000000000000    0.000000000000

 0.167586245199   -0.000000015698    0.000000000000
-0.000000015698   -0.099999999968    0.000000000000
 0.000000000000    0.000000000000    0.000000000000

 0.167586321157   -0.000000002779    0.000000000000
-0.000000002779   -0.100000042767    0.000000000000
 0.000000000000    0.000000000000    0.000000000000

 0.167586368280   -0.000000009246    0.000000000000
-0.000000009246   -0.100000069231    0.000000000000
 0.000000000000    0.000000000000    0.000000000000

 0.167586460940   -0.000000022363    0.000000000000
-0.000000022363   -0.100000121348    0.000000000000
 0.000000000000    0.000000000000    0.000000000000

 0.167586559970   -0.000000017256    0.000000000000
-0.000000017256   -0.100000177108    0.000000000000
 0.000000000000    0.000000000000    0.000000000000

 0.167586617945   -0.000000013890    0.000000000000
-0.000000013890   -0.100000209926    0.000000000000
 0.000000000000    0.000000000000    0.000000000000

 0.167586751297   -0.000000006867    0.000000000000
-0.000000006867   -0.100000285415    0.000000000000
 0.000000000000    0.000000000000    0.000000000000

 0.167586871445   -0.000000009878    0.000000000000
-0.000000009878   -0.100000353307    0.000000000000
 0.000000000000    0.000000000000    0.000000000000

 0.167586824407   -0.000000011009    0.000000000000
-0.000000011009   -0.100000326743    0.000000000000
 0.000000000000    0.000000000000    0.000000000000

 0.167586762507   -0.000000016610    0.000000000000
-0.000000016610   -0.100000291707    0.000000000000
 0.000000000000    0.000000000000    0.000000000000

 0.167586668680   -0.000000020535    0.000000000000
-0.000000020535   -0.100000238651    0.000000000000
 0.000000000000    0.000000000000    0.000000000000

 0.167586556656   -0.000000021026    0.000000000000
-0.000000021026   -0.100000175375    0.000000000000
 0.000000000000    0.000000000000    0.000000000000

 0.167586435410   -0.000000015441    0.000000000000
-0.000000015441   -0.100000106981    0.000000000000
 0.000000000000    0.000000000000    0.000000000000

 0.167586318974   -0.000000006485    0.000000000000
-0.000000006485   -0.100000041327    0.000000000000
 0.000000000000    0.000000000000    0.000000000000

 0.167586204269   -0.000000002985    0.000000000000
-0.000000002985   -0.099999976663    0.000000000000
 0.000000000000    0.000000000000    0.000000000000

 0.167586082755   -0.000000003879    0.000000000000
-0.000000003879   -0.099999908212    0.000000000000
 0.000000000000    0.000000000000    0.000000000000

 0.167585965490   -0.000000005958    0.000000000000
-0.000000005958   -0.099999842198    0.000000000000
 0.000000000000    0.000000000000    0.000000000000

 0.167585854826   -0.000000011832    0.000000000000
-0.000000011832   -0.099999779882    0.000000000000
 0.000000000000    0.000000000000    0.000000000000

 0.167585750251   -0.000000017476    0.000000000000
-0.000000017476   -0.099999720872    0.000000000000
 0.000000000000    0.000000000000    0.000000000000

 0.167585679411   -0.000000020392    0.000000000000
-0.000000020392   -0.099999680722    0.000000000000
 0.000000000000    0.000000000000    0.000000000000

 0.167585652087   -0.000000023657    0.000000000000
-0.000000023657   -0.099999665047    0.000000000000
 0.000000000000    0.000000000000    0.000000000000

 0.167585735919   -0.000000023935    0.000000000000
-0.000000023935   -0.099999712351    0.000000000000
 0.000000000000    0.000000000000    0.000000000000

 0.167585800951   -0.000000032058    0.000000000000
-0.000000032058   -0.099999748984    0.000000000000
 0.000000000000    0.000000000000    0.000000000000

 0.167585799252   -0.000000028756    0.000000000000
-0.000000028756   -0.099999747893    0.000000000000
 0.000000000000    0.000000000000    0.000000000000

 0.167585814952   -0.000000023052    0.000000000000
-0.000000023052   -0.099999756768    0.000000000000
 0.000000000000    0.000000000000    0.000000000000

 0.167585843920   -0.000000022396    0.000000000000
-0.000000022396   -0.099999773296    0.000000000000
 0.000000000000    0.000000000000    0.000000000000

 0.167585902429   -0.000000021236    0.000000000000
-0.000000021236   -0.099999806414    0.000000000000
 0.000000000000    0.000000000000    0.000000000000

 0.167585981653   -0.000000015598    0.000000000000
-0.000000015598   -0.099999851236    0.000000000000
 0.000000000000    0.000000000000    0.000000000000

 0.167586074400   -0.000000014808    0.000000000000
-0.000000014808   -0.099999903670    0.000000000000
 0.000000000000    0.000000000000    0.000000000000

 0.167586179847   -0.000000013786    0.000000000000
-0.000000013786   -0.099999963075    0.000000000000
 0.000000000000    0.000000000000    0.000000000000

 0.167586279774   -0.000000008502    0.000000000000
-0.000000008502   -0.100000019412    0.000000000000
 0.000000000000    0.000000000000    0.000000000000

 0.167586367941   -0.000000010761    0.000000000000
-0.000000010761   -0.100000069161    0.000000000000
 0.000000000000    0.000000000000    0.000000000000

 0.167586455593   -0.000000017899    0.000000000000
-0.000000017899   -0.100000118438    0.000000000000
 0.000000000000    0.000000000000    0.000000000000

 0.167586550034   -0.000000021188    0.000000000000
-0.000000021188   -0.100000171595    0.000000000000
 0.000000000000    0.000000000000    0.000000000000

 0.167586658931   -0.000000019470    0.000000000000
-0.000000019470   -0.100000233147    0.000000000000
 0.000000000000    0.000000000000    0.000000000000

 0.167586802803   -0.000000009093    0.000000000000
-0.000000009093   -0.100000314518    0.000000000000
 0.000000000000    0.000000000000    0.000000000000

 0.167586719667   -0.000000017295    0.000000000000
-0.000000017295   -0.100000267480    0.000000000000
 0.000000000000    0.000000000000    0.000000000000

 0.167586624308   -0.000000023835    0.000000000000
-0.000000023835   -0.100000213595    0.000000000000
 0.000000000000    0.000000000000    0.000000000000

 0.167586511054   -0.000000021342    0.000000000000
-0.000000021342   -0.100000149684    0.000000000000
 0.000000000000    0.000000000000    0.000000000000

 0.167586406630   -0.000000012960    0.000000000000
-0.000000012960   -0.100000090847    0.000000000000
 0.000000000000    0.000000000000    0.000000000000

 0.167586305842   -0.000000009105    0.000000000000
-0.000000009105   -0.100000034072    0.000000000000
 0.000000000000    0.000000000000    0.000000000000

 0.167586190725   -0.000000008543    0.000000000000
-0.000000008543   -0.099999969121    0.000000000000
 0.000000000000    0.000000000000    0.000000000000

 0.167586078351   -0.000000007715    0.000000000000
-0.000000007715   -0.099999905766    0.000000000000
 0.000000000000    0.000000000000    0.000000000000

 0.167585976779   -0.000000010909    0.000000000000
-0.000000010909   -0.099999848541    0.000000000000
 0.000000000000    0.000000000000    0.000000000000

 0.167585879334   -0.000000016350    0.000000000000
-0.000000016350   -0.099999793509    0.000000000000
 0.000000000000    0.000000000000    0.000000000000

 0.167585802025   -0.000000021427    0.000000000000
-0.000000021427   -0.099999749764    0.000000000000
 0.000000000000    0.000000000000    0.000000000000

 0.167585747341   -0.000000026619    0.000000000000
-0.000000026619   -0.099999718788    0.000000000000
 0.000000000000    0.000000000000    0.000000000000

 0.167585709751   -0.000000026995    0.000000000000
-0.000000026995   -0.099999697518    0.000000000000
 0.000000000000    0.000000000000    0.000000000000

 0.167587253662   -0.000000001267    0.000000000000
-0.000000001267   -0.100000569005    0.000000000000
 0.000000000000    0.000000000000    0.000000000000

 0.167586106695    0.000000053582    0.000000000000
 0.000000053582   -0.099999920955    0.000000000000
 0.000000000000    0.000000000000    0.000000000000

 0.167586816161   -0.000000172723    0.000000000000
-0.000000172723   -0.100000323617    0.000000000000
 0.000000000000    0.000000000000    0.000000000000

 0.167584665039    0.000000004014    0.000000000000
 0.000000004014   -0.099999108349    0.000000000000
 0.000000000000    0.000000000000    0.000000000000


SCALARS   nHP   float
LOOKUP_TABLE default  0.154760474054
 0.154759205151
 0.154760472728
 0.154760462754
 0.154760451460
 0.154760431226
 0.154760407313
 0.154760379201
 0.154760347388
 0.154760307537
 0.154760263326
 0.154760224778
 0.154760188124
 0.154760127852
 0.154760052457
 0.154760002369
 0.154759973702
 0.154759893106
 0.154759780814
 0.154759687083
 0.154759671370
 0.154759742251
 0.154759721438
 0.154759441314
 0.154759148688
 0.154759696232
 0.154759178822
 0.154759221267
 0.154759163038
 0.154759520462
 0.154759223284
 0.154758771657
 0.154759184202
 0.154759370823
 0.154758991683
 0.154759364360
 0.154759168335
 0.154758738780
 0.154759144372
 0.154759325508
 0.154758972253
 0.154759327348
 0.154759170174
 0.154758744490
 0.154759208612
 0.154759385381
 0.154759097588
 0.154759451849
 0.154759370986
 0.154758945504
 0.154759492011
 0.154759661652
 0.154759443591
 0.154759783044
 0.154759741898
 0.154759295291
 0.154759850176
 0.154759994197
 0.154759758510
 0.154760067850
 0.154759973198
 0.154759513289
 0.154760026435
 0.154760149019
 0.154759949197
 0.154760228819
 0.154760117755
 0.154759710778
 0.154760206965
 0.154760257505
 0.154759887778
 0.154760282251
 0.154760218842
 0.154757987325
 0.154759206266
 0.154759921478
 0.154760102160
 0.154759887018
 0.154759914036
 0.154759871116
 0.154759702915
 0.154759519404
 0.154759372040
 0.154759336460
 0.154759439376
 0.154759236276
 0.154759024767
 0.154758958465
 0.154758672849
 0.154758680657
 0.154758755963
 0.154758462328
 0.154758266208
 0.154758204757
 0.154758129115
 0.154758063063
 0.154757989764
 0.154757956772
 0.154758028099
 0.154758095676
 0.154758149601
 0.154758233519
 0.154758306169
 0.154758379962
 0.154758467705
 0.154758548019
 0.154758646853
 0.154758741858
 0.154758848965
 0.154758953701
 0.154759033745
 0.154759120919
 0.154759191010
 0.154759267076
 0.154759340851
 0.154759416369
 0.154759493194
 0.154759569762
 0.154759637899
 0.154759707591
 0.154759759832
 0.154759815707
 0.154759859272
 0.154759905672
 0.154759947503
 0.154759990624
 0.154760031052
 0.154760072300
 0.154760110316
 0.154760149614
 0.154760184212
 0.154760220318
 0.154760251642
 0.154760284396
 0.154760312591
 0.154760341767
 0.154760366650
 0.154760392701
 0.154760412258
 0.154760432919
 0.154760446263
 0.154760459571
 0.154760466374
 0.154760474190
 0.154760124262
 0.154760014209
 0.154759530936
 0.154760133525
 0.154758072224
 0.154760463727
 0.154758059041
 0.154758022296
 0.154758047761
 0.154758001382
 0.154759795759
 0.154760076915
 0.154760599768
 0.154759679909
 0.154759635504
 0.154759222600
 0.154759323323
 0.154759246546
 0.154760460527
 0.154760467164
 0.154760469218
 0.154760474649
 0.154759031019
 0.154759076225
 0.154759135699
 0.154759221114
 0.154759315574
 0.154759414315
 0.154759526491
 0.154759627308
 0.154759716805
 0.154759825702
 0.154759932720
 0.154759941361
 0.154759892771
 0.154759848913
 0.154759802261
 0.154759744529
 0.154759697000
 0.154759650980
 0.154759613942
 0.154759572434
 0.154759524249
 0.154759466308
 0.154759409670
 0.154759356730
 0.154759316062
 0.154759272909
 0.154759233165
 0.154759185330
 0.154759150213
 0.154759117461
 0.154759107433
 0.154759088759
 0.154759076613
 0.154759055557
 0.154759045181
 0.154759004437
 0.154758987478
 0.154758994994
 0.154759012720
 0.154759044803
 0.154759075663
 0.154759125329
 0.154759165447
 0.154759214933
 0.154759262289
 0.154759315788
 0.154759366029
 0.154759423313
 0.154759477358
 0.154759529849
 0.154759583907
 0.154759637049
 0.154759686127
 0.154759743041
 0.154759793649
 0.154759847750
 0.154759902573
 0.154759950244
 0.154759994061
 0.154760023689
 0.154759985800
 0.154759969660
 0.154759860257
 0.154759766725
 0.154759672507
 0.154759593234
 0.154759518614
 0.154759405763
 0.154759309749
 0.154759240535
 0.154759161143
 0.154759122575
 0.154759117681
 0.154759082626
 0.154759042558
 0.154759139207
 0.154758988700
 0.154758967906
 0.154758971787
 0.154759008021
 0.154759100605
 0.154759207771
 0.154759309937
 0.154759427498
 0.154759538535
 0.154759640247
 0.154759757414
 0.154759872698
 0.154759967387
 0.154760046262
 0.154760064059
 0.154760093897
 0.154760074828
 0.154760033715
 0.154759926582
 0.154759876216
 0.154759823861
 0.154759763849
 0.154759712075
 0.154759671689
 0.154759655845
 0.154759621801
 0.154759585224
 0.154759541899
 0.154759484751
 0.154759437892
 0.154759410076
 0.154759363800
 0.154759324215
 0.154759278355
 0.154759230590
 0.154759194493
 0.154759187842
 0.154759165608
 0.154759156341
 0.154759143341
 0.154759130449
 0.154759126112
 0.154759163333
 0.154759171948
 0.154759184022
 0.154759229459
 0.154759108439
 0.154758982565
 0.154758906449
 0.154758926571
 0.154758951974
 0.154758963485
 0.154758997327
 0.154759033398
 0.154759084437
 0.154759138516
 0.154759197420
 0.154759250615
 0.154759311819
 0.154759368577
 0.154759428920
 0.154759488261
 0.154759545106
 0.154759598163
 0.154759654447
 0.154759709768
 0.154759769365
 0.154759829103
 0.154759885969
 0.154759938191
 0.154759983391
 0.154760025580
 0.154760056272
 0.154760084275
 0.154760105089
 0.154760154850
 0.154760055884
 0.154759950850
 0.154759851121
 0.154759784540
 0.154759663170
 0.154759605545
 0.154759582255
 0.154759464244
 0.154759380602
 0.154759341527
 0.154759233341
 0.154759182738
 0.154759196576
 0.154759153109
 0.154759192305
 0.154759284194
 0.154759292009
 0.154759246681
 0.154759075796
 0.154758863129
 0.154758803438
 0.154758908672
 0.154758979627
 0.154759071830
 0.154759180795
 0.154759306092
 0.154759431488
 0.154759547722
 0.154759663886
 0.154759781477
 0.154759895861
 0.154759997555
 0.154760068852
 0.154760116261
 0.154760174052
 0.154760192530
 0.154760149531
 0.154760093268
 0.154760044143
 0.154759992085
 0.154759925895
 0.154759851289
 0.154759776305
 0.154759751047
 0.154759710880
 0.154759666384
 0.154759641723
 0.154759597205
 0.154759572853
 0.154759561202
 0.154759530977
 0.154759495638
 0.154759461216
 0.154759404810
 0.154759371689
 0.154759348630
 0.154759320207
 0.154759285177
 0.154759262811
 0.154759218771
 0.154759206082
 0.154759204983
 0.154759202981
 0.154759198507
 0.154759214822
 0.154759211987
 0.154759249620
 0.154759305172
 0.154759350227
 0.154759362170
 0.154759374899
 0.154759404476
 0.154759405706
 0.154759313408
 0.154759249646
 0.154759209306
 0.154759048646
 0.154758863900
 0.154758730322
 0.154758705342
 0.154758701749
 0.154758770286
 0.154758825276
 0.154758879218
 0.154758958985
 0.154759008845
 0.154759068530
 0.154759120679
 0.154759176879
 0.154759236080
 0.154759300798
 0.154759365259
 0.154759430007
 0.154759490904
 0.154759551753
 0.154759610143
 0.154759670954
 0.154759729888
 0.154759789032
 0.154759846684
 0.154759899919
 0.154759953339
 0.154759997708
 0.154760040731
 0.154760074820
 0.154760102650
 0.154760132890
 0.154760159637
 0.154760187364
 0.154760215068
 0.154760236113
 0.154760228272
 0.154760137476
 0.154760014799
 0.154759910555
 0.154759755890
 0.154759630746
 0.154759580041
 0.154759558666
 0.154759485836
 0.154759421104
 0.154759374565
 0.154759299666
 0.154759254260
 0.154759243459
 0.154759215650
 0.154759234197
 0.154759321252
 0.154759386661
 0.154759454029
 0.154759489428
 0.154759392600
 0.154759268546
 0.154758957300
 0.154758713556
 0.154758711498
 0.154758735066
 0.154758901047
 0.154759056850
 0.154759172494
 0.154759294872
 0.154759425776
 0.154759552200
 0.154759674748
 0.154759795137
 0.154759905666
 0.154759999768
 0.154760074983
 0.154760142669
 0.154760201585
 0.154760250434
 0.154760300185
 0.154760262267
 0.154760216611
 0.154760173247
 0.154760123509
 0.154760053311
 0.154759989359
 0.154759952988
 0.154759911346
 0.154759834885
 0.154759664620
 0.154759706639
 0.154759720561
 0.154759651265
 0.154759575941
 0.154759514699
 0.154759501881
 0.154759518641
 0.154759547212
 0.154759523130
 0.154759446037
 0.154759381779
 0.154759356389
 0.154759359011
 0.154759387930
 0.154759359628
 0.154759293080
 0.154759236201
 0.154759227501
 0.154759245536
 0.154759296165
 0.154759290110
 0.154759252450
 0.154759224687
 0.154759254418
 0.154759313623
 0.154759405079
 0.154759447486
 0.154759437821
 0.154759442876
 0.154759479732
 0.154759540016
 0.154759627884
 0.154759671074
 0.154759642517
 0.154759618117
 0.154759603966
 0.154759491922
 0.154759397137
 0.154759347963
 0.154759188632
 0.154759080043
 0.154758839159
 0.154758761127
 0.154758738037
 0.154758601596
 0.154758591016
 0.154758590725
 0.154758629779
 0.154758655922
 0.154758713678
 0.154758772822
 0.154758847378
 0.154758933788
 0.154759019139
 0.154759089136
 0.154759166871
 0.154759229182
 0.154759295538
 0.154759360175
 0.154759422877
 0.154759486942
 0.154759550217
 0.154759611925
 0.154759674556
 0.154759735070
 0.154759793940
 0.154759851391
 0.154759902875
 0.154759953265
 0.154759995442
 0.154760037027
 0.154760074172
 0.154760109344
 0.154760144995
 0.154760177651
 0.154760208158
 0.154760235085
 0.154760262321
 0.154760285844
 0.154760308483
 0.154760335612
 0.154760350733
 0.154760288535
 0.154760203149
 0.154760099121
 0.154759967925
 0.154759900295
 0.154759688523
 0.154759579739
 0.154759594975
 0.154759558393
 0.154759410412
 0.154759499950
 0.154759448401
 0.154759275272
 0.154759354518
 0.154759322648
 0.154759182465
 0.154759303057
 0.154759323003
 0.154759255035
 0.154759454658
 0.154759533933
 0.154759485211
 0.154759711110
 0.154759727822
 0.154759663414
 0.154759643345
 0.154759556872
 0.154759438139
 0.154759080286
 0.154758869027
 0.154758636010
 0.154758527181
 0.154758450139
 0.154758570436
 0.154758674298
 0.154758815367
 0.154758964826
 0.154759140661
 0.154759293600
 0.154759421745
 0.154759545770
 0.154759671535
 0.154759792158
 0.154759900864
 0.154759992167
 0.154760069589
 0.154760144139
 0.154760210233
 0.154760268892
 0.154760319792
 0.154760358668
 0.154760371923
 0.154760347556
 0.154760315443
 0.154760278485
 0.154760236149
 0.154760187661
 0.154760132180
 0.154760072582
 0.154760018557
 0.154759971490
 0.154759893702
 0.154759815855
 0.154759818367
 0.154759765705
 0.154759612843
 0.154759634669
 0.154759566997
 0.154759453955
 0.154759424313
 0.154759428279
 0.154759432049
 0.154759503723
 0.154759485250
 0.154759380180
 0.154759346309
 0.154759326292
 0.154759312383
 0.154759379263
 0.154759357352
 0.154759262896
 0.154759235398
 0.154759232623
 0.154759234372
 0.154759324064
 0.154759322804
 0.154759255748
 0.154759253281
 0.154759283609
 0.154759317916
 0.154759444635
 0.154759482691
 0.154759445569
 0.154759474891
 0.154759512275
 0.154759560071
 0.154759681820
 0.154759728207
 0.154759685070
 0.154759713579
 0.154759727229
 0.154759723474
 0.154759798575
 0.154759845891
 0.154759841011
 0.154759720360
 0.154759606761
 0.154759554297
 0.154759620794
 0.154759506337
 0.154759289625
 0.154759184690
 0.154758951021
 0.154759022131
 0.154758928364
 0.154758656131
 0.154758677790
 0.154758497842
 0.154758359343
 0.154758334339
 0.154758339676
 0.154758438934
 0.154758523283
 0.154758561338
 0.154758644300
 0.154758717735
 0.154758787695
 0.154758856888
 0.154758931851
 0.154759015468
 0.154759103882
 0.154759189664
 0.154759275198
 0.154759347193
 0.154759417350
 0.154759480043
 0.154759541797
 0.154759603526
 0.154759664502
 0.154759725711
 0.154759783786
 0.154759840644
 0.154759891186
 0.154759940546
 0.154759983491
 0.154760024787
 0.154760063737
 0.154760101442
 0.154760137981
 0.154760173410
 0.154760207340
 0.154760238653
 0.154760269371
 0.154760297331
 0.154760322651
 0.154760346097
 0.154760365817
 0.154760382281
 0.154760397835
 0.154760394985
 0.154760336049
 0.154760265013
 0.154760157799
 0.154760070481
 0.154759903938
 0.154759847063
 0.154759677798
 0.154759602811
 0.154759481293
 0.154759192727
 0.154759494375
 0.154759452699
 0.154759109901
 0.154759374600
 0.154759351298
 0.154759046382
 0.154759354360
 0.154759384815
 0.154759143644
 0.154759524332
 0.154759618805
 0.154759408295
 0.154759779768
 0.154759848536
 0.154759610714
 0.154759903127
 0.154759955520
 0.154759813203
 0.154759572754
 0.154759646273
 0.154759206490
 0.154759004835
 0.154758798132
 0.154758562563
 0.154758356821
 0.154758311534
 0.154758389125
 0.154758614342
 0.154758757800
 0.154758904815
 0.154759066483
 0.154759243814
 0.154759404585
 0.154759536268
 0.154759656990
 0.154759774953
 0.154759882282
 0.154759973627
 0.154760055299
 0.154760130953
 0.154760200699
 0.154760266712
 0.154760323246
 0.154760369298
 0.154760405364
 0.154760415961
 0.154760388678
 0.154760357413
 0.154760325021
 0.154760288327
 0.154760246842
 0.154760196510
 0.154760138542
 0.154760090783
 0.154760051827
 0.154759975083
 0.154759867648
 0.154759813538
 0.154759830084
 0.154759821419
 0.154759512488
 0.154759368234
 0.154759438433
 0.154759194137
 0.154759365934
 0.154759432392
 0.154759249639
 0.154759346318
 0.154759346397
 0.154759228408
 0.154759408735
 0.154759393572
 0.154759181082
 0.154759259673
 0.154759241352
 0.154759138096
 0.154759315526
 0.154759316192
 0.154759121952
 0.154759225752
 0.154759229829
 0.154759156392
 0.154759360001
 0.154759394059
 0.154759230990
 0.154759372921
 0.154759412726
 0.154759373029
 0.154759609992
 0.154759660585
 0.154759517696
 0.154759657170
 0.154759700610
 0.154759648474
 0.154759871470
 0.154759886941
 0.154759720782
 0.154759821261
 0.154759844362
 0.154759817078
 0.154760015872
 0.154760032335
 0.154759887955
 0.154760001256
 0.154759884831
 0.154759867866
 0.154759737326
 0.154759671569
 0.154759686646
 0.154759550278
 0.154759449266
 0.154759305649
 0.154759073551
 0.154759178061
 0.154759039241
 0.154758892754
 0.154758894876
 0.154758539912
 0.154758392086
 0.154758410758
 0.154758290835
 0.154758211401
 0.154758166226
 0.154758223229
 0.154758283004
 0.154758352008
 0.154758441261
 0.154758539209
 0.154758630117
 0.154758722193
 0.154758797556
 0.154758880518
 0.154758959148
 0.154759041919
 0.154759127458
 0.154759209636
 0.154759294213
 0.154759374263
 0.154759447180
 0.154759519890
 0.154759583265
 0.154759646572
 0.154759706609
 0.154759762426
 0.154759818422
 0.154759867418
 0.154759915967
 0.154759959696
 0.154760002052
 0.154760042890
 0.154760082184
 0.154760120240
 0.154760156399
 0.154760191673
 0.154760225840
 0.154760258171
 0.154760289236
 0.154760318115
 0.154760344357
 0.154760368334
 0.154760389085
 0.154760408754
 0.154760425365
 0.154760438524
 0.154760435324
 0.154760428530
 0.154760377106
 0.154760307893
 0.154760223101
 0.154760121342
 0.154760010775
 0.154759859954
 0.154759781464
 0.154759592845
 0.154759672594
 0.154759237464
 0.154759231642
 0.154759277744
 0.154759241752
 0.154759291083
 0.154759175614
 0.154759153437
 0.154759244764
 0.154759168781
 0.154759206481
 0.154759363126
 0.154759361256
 0.154759471191
 0.154759671922
 0.154759673675
 0.154759764361
 0.154759910801
 0.154759833542
 0.154759883090
 0.154760122338
 0.154760008060
 0.154759924468
 0.154760001101
 0.154759721083
 0.154759614231
 0.154759393217
 0.154759218044
 0.154758828828
 0.154758731791
 0.154758478488
 0.154758202903
 0.154758094861
 0.154758155642
 0.154758308954
 0.154758471009
 0.154758663534
 0.154758847259
 0.154759018729
 0.154759182016
 0.154759338183
 0.154759492105
 0.154759631385
 0.154759750848
 0.154759853542
 0.154759944195
 0.154760028371
 0.154760107172
 0.154760180754
 0.154760248467
 0.154760309595
 0.154760363489
 0.154760408136
 0.154760441097
 0.154760454195
 0.154760459005
 0.154760442996
 0.154760421294
 0.154760395636
 0.154760364616
 0.154760328358
 0.154760288896
 0.154760246272
 0.154760202336
 0.154760159599
 0.154760103667
 0.154760027404
 0.154759966624
 0.154759937466
 0.154759864594
 0.154759714919
 0.154759620237
 0.154759727814
 0.154759802535
 0.154759565556
 0.154759270272
 0.154759761465
 0.154759606760
 0.154758511571
 0.154758599658
 0.154759604673
 0.154759419854
 0.154759417891
 0.154759595181
 0.154758535323
 0.154758524665
 0.154759562385
 0.154759355826
 0.154759358123
 0.154759552708
 0.154758518376
 0.154758525701
 0.154759591660
 0.154759411384
 0.154759446935
 0.154759674326
 0.154758680944
 0.154758724069
 0.154759830444
 0.154759686712
 0.154759751096
 0.154760005293
 0.154759019489
 0.154759070348
 0.154760165173
 0.154760013073
 0.154760050108
 0.154760287587
 0.154759263987
 0.154759276064
 0.154760320597
 0.154760138645
 0.154760202891
 0.154760450091
 0.154759460797
 0.154759509177
 0.154760489836
 0.154760235307
 0.154760193676
 0.154760033305
 0.154759828362
 0.154759824593
 0.154759935128
 0.154759869743
 0.154759609328
 0.154759411408
 0.154759308296
 0.154759295375
 0.154759321565
 0.154759155191
 0.154759064716
 0.154758961870
 0.154758713727
 0.154758613839
 0.154758514836
 0.154758361064
 0.154758264654
 0.154758151957
 0.154758081988
 0.154758035777
 0.154758102407
 0.154758181798
 0.154758261059
 0.154758350709
 0.154758429420
 0.154758509706
 0.154758598377
 0.154758697244
 0.154758802886
 0.154758896229
 0.154758989570
 0.154759074355
 0.154759150974
 0.154759228057
 0.154759302207
 0.154759378623
 0.154759455905
 0.154759530611
 0.154759604492
 0.154759670529
 0.154759731338
 0.154759786508
 0.154759835016
 0.154759882110
 0.154759925672
 0.154759968687
 0.154760010518
 0.154760051175
 0.154760090924
 0.154760129066
 0.154760166119
 0.154760201550
 0.154760235240
 0.154760267329
 0.154760297766
 0.154760326924
 0.154760353985
 0.154760378732
 0.154760401807
 0.154760422158
 0.154760439041
 0.154760453504
 0.154760463022
 0.154760452345
 0.154760424092
 0.154760384930
 0.154760336078
 0.154760278427
 0.154760213921
 0.154760143292
 0.154760067119
 0.154759985587
 0.154759898151
 0.154759801127
 0.154759689547
 0.154759560291
 0.154759414376
 0.154759259052
 0.154759099242
 0.154758931909
 0.154758755112
 0.154758568659
 0.154758392227
 0.154758235614
 0.154758102326
 0.154758135889
 0.154758334783
 0.154758545159
 0.154758837308
 0.154759080680
 0.154759267900
 0.154759454449
 0.154759695433
 0.154759847850
 0.154759911304
 0.154760082715
 0.154760008284
 0.154759958211
 0.154759953965
 0.154759824788
 0.154759791113
 0.154759809833
 0.154759626566
 0.154759525153
 0.154759509317
 0.154759317324
 0.154759240212
 0.154759281527
 0.154759161508
 0.154759153818
 0.154759257338
 0.154759188067
 0.154759216747
 0.154759341659
 0.154759232625
 0.154759191251
 0.154759502622
 0.154759588783
 0.154759676045
 0.154759810759
 0.154759936258
 0.154760067633
 0.154760173572
 0.154760266888
 0.154760343401
 0.154760404534
 0.154760446763
 0.154760416194
 0.154760386766
 0.154760345664
 0.154760294002
 0.154760232902
 0.154760165186
 0.154760092309
 0.154760013691
 0.154759927217
 0.154759827917
 0.154759715198
 0.154759594736
 0.154759467553
 0.154759323211
 0.154759156823
 0.154758986614
 0.154758830879
 0.154758681081
 0.154758511426
 0.154758352380
 0.154758270627
 0.154758429902
 0.154758688234
 0.154758947576
 0.154759099775
 0.154759400607
 0.154759605174
 0.154759686996
 0.154759893092
 0.154759925220
 0.154759770997
 0.154759733324
 0.154759799457
 0.154759601582
 0.154759520404
 0.154759556840
 0.154759342543
 0.154759273566
 0.154759356684
 0.154759208993
 0.154759207280
 0.154759349039
 0.154759250437
 0.154759288307
 0.154759456393
 0.154759353706
 0.154759358041
 0.154759514016
 0.154759486678
 0.154759793406
 0.154759856957
 0.154759998563
 0.154760110395
 0.154760214996
 0.154760301390
 0.154760366101
 0.154760372288
 0.154760339078
 0.154760292805
 0.154760238399
 0.154760176295
 0.154760106111
 0.154760030458
 0.154759945535
 0.154759845031
 0.154759730469
 0.154759607912
 0.154759483196
 0.154759355933
 0.154759215863
 0.154759055519
 0.154758891683
 0.154758746932
 0.154758622679
 0.154758527422
 0.154758402136
 0.154758588572
 0.154758764783
 0.154758973611
 0.154759254889
 0.154759501867
 0.154759597226
 0.154759742804
 0.154759695653
 0.154759696450
 0.154759604891
 0.154759523622
 0.154759471387
 0.154759367666
 0.154759302954
 0.154759291538
 0.154759256185
 0.154759265472
 0.154759315457
 0.154759327573
 0.154759373856
 0.154759448549
 0.154759466052
 0.154759499203
 0.154759562964
 0.154759594487
 0.154759656295
 0.154759787091
 0.154759932957
 0.154760033476
 0.154760153145
 0.154760247533
 0.154760323011
 0.154760267371
 0.154760225310
 0.154760170432
 0.154760108244
 0.154760037398
 0.154759951233
 0.154759848464
 0.154759733289
 0.154759612554
 0.154759489341
 0.154759361626
 0.154759234174
 0.154759112427
 0.154758979776
 0.154758826801
 0.154758714700
 0.154758670076
 0.154758810894
 0.154759125412
 0.154759328217
 0.154759528173
 0.154759481789
 0.154759412616
 0.154759358002
 0.154759283493
 0.154759221740
 0.154759235456
 0.154759253500
 0.154759270502
 0.154759341210
 0.154759401439
 0.154759445287
 0.154759524621
 0.154759573915
 0.154759600772
 0.154759690199
 0.154759813024
 0.154759964280
 0.154760077751
 0.154760182945
 0.154760194523
 0.154760137223
 0.154760093534
 0.154760031821
 0.154759944770
 0.154759837068
 0.154759721416
 0.154759605996
 0.154759489841
 0.154759368874
 0.154759245300
 0.154759128856
 0.154759026593
 0.154758940327
 0.154758856782
 0.154758760796
 0.154758958342
 0.154759186555
 0.154759332456
 0.154759266566
 0.154759244530
 0.154759177264
 0.154759177116
 0.154759190121
 0.154759211002
 0.154759287571
 0.154759360807
 0.154759423998
 0.154759521746
 0.154759592937
 0.154759637090
 0.154759723921
 0.154759816731
 0.154759871092
 0.154759996131
 0.154760108771
 0.154760064675
 0.154760006634
 0.154759918665
 0.154759813646
 0.154759699995
 0.154759590858
 0.154759483345
 0.154759369458
 0.154759259561
 0.154759155848
 0.154759057821
 0.154758991389
 0.154758965736
 0.154759044318
 0.154759105267
 0.154759103654
 0.154759118373
 0.154759145557
 0.154759200418
 0.154759274700
 0.154759361655
 0.154759460484
 0.154759554146
 0.154759636791
 0.154759718926
 0.154759807432
 0.154759909526
 0.154760044418
 0.154759966469
 0.154759877069
 0.154759770906
 0.154759673034
 0.154759578573
 0.154759470665
 0.154759365337
 0.154759270140
 0.154759178789
 0.154759106302
 0.154759055023
 0.154759019778
 0.154760467057
 0.154759391782
 0.154760057175
 0.154758040541

SCALARS   nHP_nl   float
LOOKUP_TABLE default  0.154760474054
 0.154759205151
 0.154760472728
 0.154760462754
 0.154760451460
 0.154760431226
 0.154760407313
 0.154760379201
 0.154760347388
 0.154760307537
 0.154760263326
 0.154760224778
 0.154760188124
 0.154760127852
 0.154760052457
 0.154760002369
 0.154759973702
 0.154759893106
 0.154759780814
 0.154759687083
 0.154759671370
 0.154759742251
 0.154759721438
 0.154759441314
 0.154759148688
 0.154759696232
 0.154759178822
 0.154759221267
 0.154759163038
 0.154759520462
 0.154759223284
 0.154758771657
 0.154759184202
 0.154759370823
 0.154758991683
 0.154759364360
 0.154759168335
 0.154758738780
 0.154759144372
 0.154759325508
 0.154758972253
 0.154759327348
 0.154759170174
 0.154758744490
 0.154759208612
 0.154759385381
 0.154759097588
 0.154759451849
 0.154759370986
 0.154758945504
 0.154759492011
 0.154759661652
 0.154759443591
 0.154759783044
 0.154759741898
 0.154759295291
 0.154759850176
 0.154759994197
 0.154759758510
 0.154760067850
 0.154759973198
 0.154759513289
 0.154760026435
 0.154760149019
 0.154759949197
 0.154760228819
 0.154760117755
 0.154759710778
 0.154760206965
 0.154760257505
 0.154759887778
 0.154760282251
 0.154760218842
 0.154757987325
 0.154759206266
 0.154759921478
 0.154760102160
 0.154759887018
 0.154759914036
 0.154759871116
 0.154759702915
 0.154759519404
 0.154759372040
 0.154759336460
 0.154759439376
 0.154759236276
 0.154759024767
 0.154758958465
 0.154758672849
 0.154758680657
 0.154758755963
 0.154758462328
 0.154758266208
 0.154758204757
 0.154758129115
 0.154758063063
 0.154757989764
 0.154757956772
 0.154758028099
 0.154758095676
 0.154758149601
 0.154758233519
 0.154758306169
 0.154758379962
 0.154758467705
 0.154758548019
 0.154758646853
 0.154758741858
 0.154758848965
 0.154758953701
 0.154759033745
 0.154759120919
 0.154759191010
 0.154759267076
 0.154759340851
 0.154759416369
 0.154759493194
 0.154759569762
 0.154759637899
 0.154759707591
 0.154759759832
 0.154759815707
 0.154759859272
 0.154759905672
 0.154759947503
 0.154759990624
 0.154760031052
 0.154760072300
 0.154760110316
 0.154760149614
 0.154760184212
 0.154760220318
 0.154760251642
 0.154760284396
 0.154760312591
 0.154760341767
 0.154760366650
 0.154760392701
 0.154760412258
 0.154760432919
 0.154760446263
 0.154760459571
 0.154760466374
 0.154760474190
 0.154760124262
 0.154760014209
 0.154759530936
 0.154760133525
 0.154758072224
 0.154760463727
 0.154758059041
 0.154758022296
 0.154758047761
 0.154758001382
 0.154759795759
 0.154760076915
 0.154760599768
 0.154759679909
 0.154759635504
 0.154759222600
 0.154759323323
 0.154759246546
 0.154760460527
 0.154760467164
 0.154760469218
 0.154760474649
 0.154759031019
 0.154759076225
 0.154759135699
 0.154759221114
 0.154759315574
 0.154759414315
 0.154759526491
 0.154759627308
 0.154759716805
 0.154759825702
 0.154759932720
 0.154759941361
 0.154759892771
 0.154759848913
 0.154759802261
 0.154759744529
 0.154759697000
 0.154759650980
 0.154759613942
 0.154759572434
 0.154759524249
 0.154759466308
 0.154759409670
 0.154759356730
 0.154759316062
 0.154759272909
 0.154759233165
 0.154759185330
 0.154759150213
 0.154759117461
 0.154759107433
 0.154759088759
 0.154759076613
 0.154759055557
 0.154759045181
 0.154759004437
 0.154758987478
 0.154758994994
 0.154759012720
 0.154759044803
 0.154759075663
 0.154759125329
 0.154759165447
 0.154759214933
 0.154759262289
 0.154759315788
 0.154759366029
 0.154759423313
 0.154759477358
 0.154759529849
 0.154759583907
 0.154759637049
 0.154759686127
 0.154759743041
 0.154759793649
 0.154759847750
 0.154759902573
 0.154759950244
 0.154759994061
 0.154760023689
 0.154759985800
 0.154759969660
 0.154759860257
 0.154759766725
 0.154759672507
 0.154759593234
 0.154759518614
 0.154759405763
 0.154759309749
 0.154759240535
 0.154759161143
 0.154759122575
 0.154759117681
 0.154759082626
 0.154759042558
 0.154759139207
 0.154758988700
 0.154758967906
 0.154758971787
 0.154759008021
 0.154759100605
 0.154759207771
 0.154759309937
 0.154759427498
 0.154759538535
 0.154759640247
 0.154759757414
 0.154759872698
 0.154759967387
 0.154760046262
 0.154760064059
 0.154760093897
 0.154760074828
 0.154760033715
 0.154759926582
 0.154759876216
 0.154759823861
 0.154759763849
 0.154759712075
 0.154759671689
 0.154759655845
 0.154759621801
 0.154759585224
 0.154759541899
 0.154759484751
 0.154759437892
 0.154759410076
 0.154759363800
 0.154759324215
 0.154759278355
 0.154759230590
 0.154759194493
 0.154759187842
 0.154759165608
 0.154759156341
 0.154759143341
 0.154759130449
 0.154759126112
 0.154759163333
 0.154759171948
 0.154759184022
 0.154759229459
 0.154759108439
 0.154758982565
 0.154758906449
 0.154758926571
 0.154758951974
 0.154758963485
 0.154758997327
 0.154759033398
 0.154759084437
 0.154759138516
 0.154759197420
 0.154759250615
 0.154759311819
 0.154759368577
 0.154759428920
 0.154759488261
 0.154759545106
 0.154759598163
 0.154759654447
 0.154759709768
 0.154759769365
 0.154759829103
 0.154759885969
 0.154759938191
 0.154759983391
 0.154760025580
 0.154760056272
 0.154760084275
 0.154760105089
 0.154760154850
 0.154760055884
 0.154759950850
 0.154759851121
 0.154759784540
 0.154759663170
 0.154759605545
 0.154759582255
 0.154759464244
 0.154759380602
 0.154759341527
 0.154759233341
 0.154759182738
 0.154759196576
 0.154759153109
 0.154759192305
 0.154759284194
 0.154759292009
 0.154759246681
 0.154759075796
 0.154758863129
 0.154758803438
 0.154758908672
 0.154758979627
 0.154759071830
 0.154759180795
 0.154759306092
 0.154759431488
 0.154759547722
 0.154759663886
 0.154759781477
 0.154759895861
 0.154759997555
 0.154760068852
 0.154760116261
 0.154760174052
 0.154760192530
 0.154760149531
 0.154760093268
 0.154760044143
 0.154759992085
 0.154759925895
 0.154759851289
 0.154759776305
 0.154759751047
 0.154759710880
 0.154759666384
 0.154759641723
 0.154759597205
 0.154759572853
 0.154759561202
 0.154759530977
 0.154759495638
 0.154759461216
 0.154759404810
 0.154759371689
 0.154759348630
 0.154759320207
 0.154759285177
 0.154759262811
 0.154759218771
 0.154759206082
 0.154759204983
 0.154759202981
 0.154759198507
 0.154759214822
 0.154759211987
 0.154759249620
 0.154759305172
 0.154759350227
 0.154759362170
 0.154759374899
 0.154759404476
 0.154759405706
 0.154759313408
 0.154759249646
 0.154759209306
 0.154759048646
 0.154758863900
 0.154758730322
 0.154758705342
 0.154758701749
 0.154758770286
 0.154758825276
 0.154758879218
 0.154758958985
 0.154759008845
 0.154759068530
 0.154759120679
 0.154759176879
 0.154759236080
 0.154759300798
 0.154759365259
 0.154759430007
 0.154759490904
 0.154759551753
 0.154759610143
 0.154759670954
 0.154759729888
 0.154759789032
 0.154759846684
 0.154759899919
 0.154759953339
 0.154759997708
 0.154760040731
 0.154760074820
 0.154760102650
 0.154760132890
 0.154760159637
 0.154760187364
 0.154760215068
 0.154760236113
 0.154760228272
 0.154760137476
 0.154760014799
 0.154759910555
 0.154759755890
 0.154759630746
 0.154759580041
 0.154759558666
 0.154759485836
 0.154759421104
 0.154759374565
 0.154759299666
 0.154759254260
 0.154759243459
 0.154759215650
 0.154759234197
 0.154759321252
 0.154759386661
 0.154759454029
 0.154759489428
 0.154759392600
 0.154759268546
 0.154758957300
 0.154758713556
 0.154758711498
 0.154758735066
 0.154758901047
 0.154759056850
 0.154759172494
 0.154759294872
 0.154759425776
 0.154759552200
 0.154759674748
 0.154759795137
 0.154759905666
 0.154759999768
 0.154760074983
 0.154760142669
 0.154760201585
 0.154760250434
 0.154760300185
 0.154760262267
 0.154760216611
 0.154760173247
 0.154760123509
 0.154760053311
 0.154759989359
 0.154759952988
 0.154759911346
 0.154759834885
 0.154759664620
 0.154759706639
 0.154759720561
 0.154759651265
 0.154759575941
 0.154759514699
 0.154759501881
 0.154759518641
 0.154759547212
 0.154759523130
 0.154759446037
 0.154759381779
 0.154759356389
 0.154759359011
 0.154759387930
 0.154759359628
 0.154759293080
 0.154759236201
 0.154759227501
 0.154759245536
 0.154759296165
 0.154759290110
 0.154759252450
 0.154759224687
 0.154759254418
 0.154759313623
 0.154759405079
 0.154759447486
 0.154759437821
 0.154759442876
 0.154759479732
 0.154759540016
 0.154759627884
 0.154759671074
 0.154759642517
 0.154759618117
 0.154759603966
 0.154759491922
 0.154759397137
 0.154759347963
 0.154759188632
 0.154759080043
 0.154758839159
 0.154758761127
 0.154758738037
 0.154758601596
 0.154758591016
 0.154758590725
 0.154758629779
 0.154758655922
 0.154758713678
 0.154758772822
 0.154758847378
 0.154758933788
 0.154759019139
 0.154759089136
 0.154759166871
 0.154759229182
 0.154759295538
 0.154759360175
 0.154759422877
 0.154759486942
 0.154759550217
 0.154759611925
 0.154759674556
 0.154759735070
 0.154759793940
 0.154759851391
 0.154759902875
 0.154759953265
 0.154759995442
 0.154760037027
 0.154760074172
 0.154760109344
 0.154760144995
 0.154760177651
 0.154760208158
 0.154760235085
 0.154760262321
 0.154760285844
 0.154760308483
 0.154760335612
 0.154760350733
 0.154760288535
 0.154760203149
 0.154760099121
 0.154759967925
 0.154759900295
 0.154759688523
 0.154759579739
 0.154759594975
 0.154759558393
 0.154759410412
 0.154759499950
 0.154759448401
 0.154759275272
 0.154759354518
 0.154759322648
 0.154759182465
 0.154759303057
 0.154759323003
 0.154759255035
 0.154759454658
 0.154759533933
 0.154759485211
 0.154759711110
 0.154759727822
 0.154759663414
 0.154759643345
 0.154759556872
 0.154759438139
 0.154759080286
 0.154758869027
 0.154758636010
 0.154758527181
 0.154758450139
 0.154758570436
 0.154758674298
 0.154758815367
 0.154758964826
 0.154759140661
 0.154759293600
 0.154759421745
 0.154759545770
 0.154759671535
 0.154759792158
 0.154759900864
 0.154759992167
 0.154760069589
 0.154760144139
 0.154760210233
 0.154760268892
 0.154760319792
 0.154760358668
 0.154760371923
 0.154760347556
 0.154760315443
 0.154760278485
 0.154760236149
 0.154760187661
 0.154760132180
 0.154760072582
 0.154760018557
 0.154759971490
 0.154759893702
 0.154759815855
 0.154759818367
 0.154759765705
 0.154759612843
 0.154759634669
 0.154759566997
 0.154759453955
 0.154759424313
 0.154759428279
 0.154759432049
 0.154759503723
 0.154759485250
 0.154759380180
 0.154759346309
 0.154759326292
 0.154759312383
 0.154759379263
 0.154759357352
 0.154759262896
 0.154759235398
 0.154759232623
 0.154759234372
 0.154759324064
 0.154759322804
 0.154759255748
 0.154759253281
 0.154759283609
 0.154759317916
 0.154759444635
 0.154759482691
 0.154759445569
 0.154759474891
 0.154759512275
 0.154759560071
 0.154759681820
 0.154759728207
 0.154759685070
 0.154759713579
 0.154759727229
 0.154759723474
 0.154759798575
 0.154759845891
 0.154759841011
 0.154759720360
 0.154759606761
 0.154759554297
 0.154759620794
 0.154759506337
 0.154759289625
 0.154759184690
 0.154758951021
 0.154759022131
 0.154758928364
 0.154758656131
 0.154758677790
 0.154758497842
 0.154758359343
 0.154758334339
 0.154758339676
 0.154758438934
 0.154758523283
 0.154758561338
 0.154758644300
 0.154758717735
 0.154758787695
 0.154758856888
 0.154758931851
 0.154759015468
 0.154759103882
 0.154759189664
 0.154759275198
 0.154759347193
 0.154759417350
 0.154759480043
 0.154759541797
 0.154759603526
 0.154759664502
 0.154759725711
 0.154759783786
 0.154759840644
 0.154759891186
 0.154759940546
 0.154759983491
 0.154760024787
 0.154760063737
 0.154760101442
 0.154760137981
 0.154760173410
 0.154760207340
 0.154760238653
 0.154760269371
 0.154760297331
 0.154760322651
 0.154760346097
 0.154760365817
 0.154760382281
 0.154760397835
 0.154760394985
 0.154760336049
 0.154760265013
 0.154760157799
 0.154760070481
 0.154759903938
 0.154759847063
 0.154759677798
 0.154759602811
 0.154759481293
 0.154759192727
 0.154759494375
 0.154759452699
 0.154759109901
 0.154759374600
 0.154759351298
 0.154759046382
 0.154759354360
 0.154759384815
 0.154759143644
 0.154759524332
 0.154759618805
 0.154759408295
 0.154759779768
 0.154759848536
 0.154759610714
 0.154759903127
 0.154759955520
 0.154759813203
 0.154759572754
 0.154759646273
 0.154759206490
 0.154759004835
 0.154758798132
 0.154758562563
 0.154758356821
 0.154758311534
 0.154758389125
 0.154758614342
 0.154758757800
 0.154758904815
 0.154759066483
 0.154759243814
 0.154759404585
 0.154759536268
 0.154759656990
 0.154759774953
 0.154759882282
 0.154759973627
 0.154760055299
 0.154760130953
 0.154760200699
 0.154760266712
 0.154760323246
 0.154760369298
 0.154760405364
 0.154760415961
 0.154760388678
 0.154760357413
 0.154760325021
 0.154760288327
 0.154760246842
 0.154760196510
 0.154760138542
 0.154760090783
 0.154760051827
 0.154759975083
 0.154759867648
 0.154759813538
 0.154759830084
 0.154759821419
 0.154759512488
 0.154759368234
 0.154759438433
 0.154759194137
 0.154759365934
 0.154759432392
 0.154759249639
 0.154759346318
 0.154759346397
 0.154759228408
 0.154759408735
 0.154759393572
 0.154759181082
 0.154759259673
 0.154759241352
 0.154759138096
 0.154759315526
 0.154759316192
 0.154759121952
 0.154759225752
 0.154759229829
 0.154759156392
 0.154759360001
 0.154759394059
 0.154759230990
 0.154759372921
 0.154759412726
 0.154759373029
 0.154759609992
 0.154759660585
 0.154759517696
 0.154759657170
 0.154759700610
 0.154759648474
 0.154759871470
 0.154759886941
 0.154759720782
 0.154759821261
 0.154759844362
 0.154759817078
 0.154760015872
 0.154760032335
 0.154759887955
 0.154760001256
 0.154759884831
 0.154759867866
 0.154759737326
 0.154759671569
 0.154759686646
 0.154759550278
 0.154759449266
 0.154759305649
 0.154759073551
 0.154759178061
 0.154759039241
 0.154758892754
 0.154758894876
 0.154758539912
 0.154758392086
 0.154758410758
 0.154758290835
 0.154758211401
 0.154758166226
 0.154758223229
 0.154758283004
 0.154758352008
 0.154758441261
 0.154758539209
 0.154758630117
 0.154758722193
 0.154758797556
 0.154758880518
 0.154758959148
 0.154759041919
 0.154759127458
 0.154759209636
 0.154759294213
 0.154759374263
 0.154759447180
 0.154759519890
 0.154759583265
 0.154759646572
 0.154759706609
 0.154759762426
 0.154759818422
 0.154759867418
 0.154759915967
 0.154759959696
 0.154760002052
 0.154760042890
 0.154760082184
 0.154760120240
 0.154760156399
 0.154760191673
 0.154760225840
 0.154760258171
 0.154760289236
 0.154760318115
 0.154760344357
 0.154760368334
 0.154760389085
 0.154760408754
 0.154760425365
 0.154760438524
 0.154760435324
 0.154760428530
 0.154760377106
 0.154760307893
 0.154760223101
 0.154760121342
 0.154760010775
 0.154759859954
 0.154759781464
 0.154759592845
 0.154759672594
 0.154759237464
 0.154759231642
 0.154759277744
 0.154759241752
 0.154759291083
 0.154759175614
 0.154759153437
 0.154759244764
 0.154759168781
 0.154759206481
 0.154759363126
 0.154759361256
 0.154759471191
 0.154759671922
 0.154759673675
 0.154759764361
 0.154759910801
 0.154759833542
 0.154759883090
 0.154760122338
 0.154760008060
 0.154759924468
 0.154760001101
 0.154759721083
 0.154759614231
 0.154759393217
 0.154759218044
 0.154758828828
 0.154758731791
 0.154758478488
 0.154758202903
 0.154758094861
 0.154758155642
 0.154758308954
 0.154758471009
 0.154758663534
 0.154758847259
 0.154759018729
 0.154759182016
 0.154759338183
 0.154759492105
 0.154759631385
 0.154759750848
 0.154759853542
 0.154759944195
 0.154760028371
 0.154760107172
 0.154760180754
 0.154760248467
 0.154760309595
 0.154760363489
 0.154760408136
 0.154760441097
 0.154760454195
 0.154760459005
 0.154760442996
 0.154760421294
 0.154760395636
 0.154760364616
 0.154760328358
 0.154760288896
 0.154760246272
 0.154760202336
 0.154760159599
 0.154760103667
 0.154760027404
 0.154759966624
 0.154759937466
 0.154759864594
 0.154759714919
 0.154759620237
 0.154759727814
 0.154759802535
 0.154759565556
 0.154759270272
 0.154759761465
 0.154759606760
 0.154758511571
 0.154758599658
 0.154759604673
 0.154759419854
 0.154759417891
 0.154759595181
 0.154758535323
 0.154758524665
 0.154759562385
 0.154759355826
 0.154759358123
 0.154759552708
 0.154758518376
 0.154758525701
 0.154759591660
 0.154759411384
 0.154759446935
 0.154759674326
 0.154758680944
 0.154758724069
 0.154759830444
 0.154759686712
 0.154759751096
 0.154760005293
 0.154759019489
 0.154759070348
 0.154760165173
 0.154760013073
 0.154760050108
 0.154760287587
 0.154759263987
 0.154759276064
 0.154760320597
 0.154760138645
 0.154760202891
 0.154760450091
 0.154759460797
 0.154759509177
 0.154760489836
 0.154760235307
 0.154760193676
 0.154760033305
 0.154759828362
 0.154759824593
 0.154759935128
 0.154759869743
 0.154759609328
 0.154759411408
 0.154759308296
 0.154759295375
 0.154759321565
 0.154759155191
 0.154759064716
 0.154758961870
 0.154758713727
 0.154758613839
 0.154758514836
 0.154758361064
 0.154758264654
 0.154758151957
 0.154758081988
 0.154758035777
 0.154758102407
 0.154758181798
 0.154758261059
 0.154758350709
 0.154758429420
 0.154758509706
 0.154758598377
 0.154758697244
 0.154758802886
 0.154758896229
 0.154758989570
 0.154759074355
 0.154759150974
 0.154759228057
 0.154759302207
 0.154759378623
 0.154759455905
 0.154759530611
 0.154759604492
 0.154759670529
 0.154759731338
 0.154759786508
 0.154759835016
 0.154759882110
 0.154759925672
 0.154759968687
 0.154760010518
 0.154760051175
 0.154760090924
 0.154760129066
 0.154760166119
 0.154760201550
 0.154760235240
 0.154760267329
 0.154760297766
 0.154760326924
 0.154760353985
 0.154760378732
 0.154760401807
 0.154760422158
 0.154760439041
 0.154760453504
 0.154760463022
 0.154760452345
 0.154760424092
 0.154760384930
 0.154760336078
 0.154760278427
 0.154760213921
 0.154760143292
 0.154760067119
 0.154759985587
 0.154759898151
 0.154759801127
 0.154759689547
 0.154759560291
 0.154759414376
 0.154759259052
 0.154759099242
 0.154758931909
 0.154758755112
 0.154758568659
 0.154758392227
 0.154758235614
 0.154758102326
 0.154758135889
 0.154758334783
 0.154758545159
 0.154758837308
 0.154759080680
 0.154759267900
 0.154759454449
 0.154759695433
 0.154759847850
 0.154759911304
 0.154760082715
 0.154760008284
 0.154759958211
 0.154759953965
 0.154759824788
 0.154759791113
 0.154759809833
 0.154759626566
 0.154759525153
 0.154759509317
 0.154759317324
 0.154759240212
 0.154759281527
 0.154759161508
 0.154759153818
 0.154759257338
 0.154759188067
 0.154759216747
 0.154759341659
 0.154759232625
 0.154759191251
 0.154759502622
 0.154759588783
 0.154759676045
 0.154759810759
 0.154759936258
 0.154760067633
 0.154760173572
 0.154760266888
 0.154760343401
 0.154760404534
 0.154760446763
 0.154760416194
 0.154760386766
 0.154760345664
 0.154760294002
 0.154760232902
 0.154760165186
 0.154760092309
 0.154760013691
 0.154759927217
 0.154759827917
 0.154759715198
 0.154759594736
 0.154759467553
 0.154759323211
 0.154759156823
 0.154758986614
 0.154758830879
 0.154758681081
 0.154758511426
 0.154758352380
 0.154758270627
 0.154758429902
 0.154758688234
 0.154758947576
 0.154759099775
 0.154759400607
 0.154759605174
 0.154759686996
 0.154759893092
 0.154759925220
 0.154759770997
 0.154759733324
 0.154759799457
 0.154759601582
 0.154759520404
 0.154759556840
 0.154759342543
 0.154759273566
 0.154759356684
 0.154759208993
 0.154759207280
 0.154759349039
 0.154759250437
 0.154759288307
 0.154759456393
 0.154759353706
 0.154759358041
 0.154759514016
 0.154759486678
 0.154759793406
 0.154759856957
 0.154759998563
 0.154760110395
 0.154760214996
 0.154760301390
 0.154760366101
 0.154760372288
 0.154760339078
 0.154760292805
 0.154760238399
 0.154760176295
 0.154760106111
 0.154760030458
 0.154759945535
 0.154759845031
 0.154759730469
 0.154759607912
 0.154759483196
 0.154759355933
 0.154759215863
 0.154759055519
 0.154758891683
 0.154758746932
 0.154758622679
 0.154758527422
 0.154758402136
 0.154758588572
 0.154758764783
 0.154758973611
 0.154759254889
 0.154759501867
 0.154759597226
 0.154759742804
 0.154759695653
 0.154759696450
 0.154759604891
 0.154759523622
 0.154759471387
 0.154759367666
 0.154759302954
 0.154759291538
 0.154759256185
 0.154759265472
 0.154759315457
 0.154759327573
 0.154759373856
 0.154759448549
 0.154759466052
 0.154759499203
 0.154759562964
 0.154759594487
 0.154759656295
 0.154759787091
 0.154759932957
 0.154760033476
 0.154760153145
 0.154760247533
 0.154760323011
 0.154760267371
 0.154760225310
 0.154760170432
 0.154760108244
 0.154760037398
 0.154759951233
 0.154759848464
 0.154759733289
 0.154759612554
 0.154759489341
 0.154759361626
 0.154759234174
 0.154759112427
 0.154758979776
 0.154758826801
 0.154758714700
 0.154758670076
 0.154758810894
 0.154759125412
 0.154759328217
 0.154759528173
 0.154759481789
 0.154759412616
 0.154759358002
 0.154759283493
 0.154759221740
 0.154759235456
 0.154759253500
 0.154759270502
 0.154759341210
 0.154759401439
 0.154759445287
 0.154759524621
 0.154759573915
 0.154759600772
 0.154759690199
 0.154759813024
 0.154759964280
 0.154760077751
 0.154760182945
 0.154760194523
 0.154760137223
 0.154760093534
 0.154760031821
 0.154759944770
 0.154759837068
 0.154759721416
 0.154759605996
 0.154759489841
 0.154759368874
 0.154759245300
 0.154759128856
 0.154759026593
 0.154758940327
 0.154758856782
 0.154758760796
 0.154758958342
 0.154759186555
 0.154759332456
 0.154759266566
 0.154759244530
 0.154759177264
 0.154759177116
 0.154759190121
 0.154759211002
 0.154759287571
 0.154759360807
 0.154759423998
 0.154759521746
 0.154759592937
 0.154759637090
 0.154759723921
 0.154759816731
 0.154759871092
 0.154759996131
 0.154760108771
 0.154760064675
 0.154760006634
 0.154759918665
 0.154759813646
 0.154759699995
 0.154759590858
 0.154759483345
 0.154759369458
 0.154759259561
 0.154759155848
 0.154759057821
 0.154758991389
 0.154758965736
 0.154759044318
 0.154759105267
 0.154759103654
 0.154759118373
 0.154759145557
 0.154759200418
 0.154759274700
 0.154759361655
 0.154759460484
 0.154759554146
 0.154759636791
 0.154759718926
 0.154759807432
 0.154759909526
 0.154760044418
 0.154759966469
 0.154759877069
 0.154759770906
 0.154759673034
 0.154759578573
 0.154759470665
 0.154759365337
 0.154759270140
 0.154759178789
 0.154759106302
 0.154759055023
 0.154759019778
 0.154760467057
 0.154759391782
 0.154760057175
 0.154758040541

CELL_DATA   654

TENSORS   eStress   float
-50150.250633663294   -0.000340797095    0.000000000000
-0.000340797095   -117731.937053478818    0.000000000000
 0.000000000000    0.000000000000   -93357.100752289916

-50150.250330321665   -0.000547995104    0.000000000000
-0.000547995104   -117731.936515769397    0.000000000000
 0.000000000000    0.000000000000   -93357.100323710867

-50150.250180913543   -0.000915690922    0.000000000000
-0.000915690922   -117731.936250925297    0.000000000000
 0.000000000000    0.000000000000   -93357.100062963058

-50150.249166749200   -0.002120040183    0.000000000000
-0.002120040183   -117731.934453196853    0.000000000000
 0.000000000000    0.000000000000   -93357.098555095057

-50150.240309283690    0.004344045318    0.000000000000
 0.004344045318   -117731.918752272555    0.000000000000
 0.000000000000    0.000000000000   -93357.085310206792

-50150.250948529472   -0.000202924835    0.000000000000
-0.000202924835   -117731.937611611895    0.000000000000
 0.000000000000    0.000000000000   -93357.101187685766

-50150.249172694777   -0.011764371537    0.000000000000
-0.011764371537   -117731.934463707323    0.000000000000
 0.000000000000    0.000000000000   -93357.098191948549

-50150.269437713039   -0.022682139232    0.000000000000
-0.022682139232   -117731.970385889668    0.000000000000
 0.000000000000    0.000000000000   -93357.128119520727

-50150.243678387240    0.000993059143    0.000000000000
 0.000993059143   -117731.924724416036    0.000000000000
 0.000000000000    0.000000000000   -93357.090612583983

-50150.248689696513    0.000988887776    0.000000000000
 0.000988887776   -117731.933607564599    0.000000000000
 0.000000000000    0.000000000000   -93357.098036507494

-50150.250776228335   -0.000127820189    0.000000000000
-0.000127820189   -117731.937306190579    0.000000000000
 0.000000000000    0.000000000000   -93357.100541325926

-50150.250972225273   -0.000247830825    0.000000000000
-0.000247830825   -117731.937653618865    0.000000000000
 0.000000000000    0.000000000000   -93357.100861999948

-50150.251917240872   -0.004492768994    0.000000000000
-0.004492768994   -117731.939328769309    0.000000000000
 0.000000000000    0.000000000000   -93357.101849496918

-50150.252551104189    0.005047381298    0.000000000000
 0.005047381298   -117731.940452369076    0.000000000000
 0.000000000000    0.000000000000   -93357.102984973433

-50150.252265921794   -0.004888353533    0.000000000000
-0.004888353533   -117731.939946850325    0.000000000000
 0.000000000000    0.000000000000   -93357.102821670007

-50150.242337502517    0.007316314362    0.000000000000
 0.007316314362   -117731.922347529675    0.000000000000
 0.000000000000    0.000000000000   -93357.087717944363

-50150.245942536698   -0.022828838729    0.000000000000
-0.022828838729   -117731.928737831651    0.000000000000
 0.000000000000    0.000000000000   -93357.093279299108

-50150.261334234950   -0.040384970719    0.000000000000
-0.040384970719   -117731.956021388411    0.000000000000
 0.000000000000    0.000000000000   -93357.115913835121

-50150.242820734871    0.010101443171    0.000000000000
 0.010101443171   -117731.923204118357    0.000000000000
 0.000000000000    0.000000000000   -93357.088986468676

-50150.247883437827    0.004608827864    0.000000000000
 0.004608827864   -117731.932178367089    0.000000000000
 0.000000000000    0.000000000000   -93357.096534416924

-50150.246246131152    0.002915808978    0.000000000000
 0.002915808978   -117731.929276048846    0.000000000000
 0.000000000000    0.000000000000   -93357.094078219947

-50150.251139753658   -0.000194942671    0.000000000000
-0.000194942671   -117731.937950583015    0.000000000000
 0.000000000000    0.000000000000   -93357.101102622910

-50150.250837077620   -0.000057881710    0.000000000000
-0.000057881710   -117731.937414053245    0.000000000000
 0.000000000000    0.000000000000   -93357.100629747016

-50150.251233708084   -0.000090285648    0.000000000000
-0.000090285648   -117731.938117128419    0.000000000000
 0.000000000000    0.000000000000   -93357.101214075810

-50150.248348069457   -0.003000246751    0.000000000000
-0.003000246751   -117731.933001987942    0.000000000000
 0.000000000000    0.000000000000   -93357.097246744437

-50150.248400352648   -0.003015621100    0.000000000000
-0.003015621100   -117731.933094665786    0.000000000000
 0.000000000000    0.000000000000   -93357.097244928533

-50150.248839692387   -0.002326468086    0.000000000000
-0.002326468086   -117731.933873448113    0.000000000000
 0.000000000000    0.000000000000   -93357.097821754200

-50150.249689652570   -0.001636922869    0.000000000000
-0.001636922869   -117731.935380104638    0.000000000000
 0.000000000000    0.000000000000   -93357.099022109542

-50150.249872775101   -0.001103066227    0.000000000000
-0.001103066227   -117731.935704711228    0.000000000000
 0.000000000000    0.000000000000   -93357.099252786342

-50150.249677757020    0.000136290871    0.000000000000
 0.000136290871   -117731.935359018244    0.000000000000
 0.000000000000    0.000000000000   -93357.098963124256

-50150.250121985737    0.001299501675    0.000000000000
 0.001299501675   -117731.936146467255    0.000000000000
 0.000000000000    0.000000000000   -93357.099673422752

-50150.249839292097    0.001156096644    0.000000000000
 0.001156096644   -117731.935645359103    0.000000000000
 0.000000000000    0.000000000000   -93357.099326558557

-50150.248600082530   -0.000103445867    0.000000000000
-0.000103445867   -117731.933448711585    0.000000000000
 0.000000000000    0.000000000000   -93357.097587876749

-50150.247716132246   -0.002437921012    0.000000000000
-0.002437921012   -117731.931881803845    0.000000000000
 0.000000000000    0.000000000000   -93357.096432462757

-50150.246844326888   -0.004363592389    0.000000000000
-0.004363592389   -117731.930336424150    0.000000000000
 0.000000000000    0.000000000000   -93357.095285221192

-50150.248561395507   -0.003956655400    0.000000000000
-0.003956655400   -117731.933380135219    0.000000000000
 0.000000000000    0.000000000000   -93357.097894201797

-50150.249295200279   -0.001494980935    0.000000000000
-0.001494980935   -117731.934680892038    0.000000000000
 0.000000000000    0.000000000000   -93357.098770614160

-50150.250079780250    0.000319102965    0.000000000000
 0.000319102965   -117731.936071653763    0.000000000000
 0.000000000000    0.000000000000   -93357.099767161271

-50150.250434531408    0.000985758420    0.000000000000
 0.000985758420   -117731.936700492341    0.000000000000
 0.000000000000    0.000000000000   -93357.100190198384

-50150.249953776343    0.000287545746    0.000000000000
 0.000287545746   -117731.935848295892    0.000000000000
 0.000000000000    0.000000000000   -93357.099411202100

-50150.249241547775   -0.000549971089    0.000000000000
-0.000549971089   -117731.934585784940    0.000000000000
 0.000000000000    0.000000000000   -93357.098326753505

-50150.249212067487   -0.001392991664    0.000000000000
-0.001392991664   -117731.934533527630    0.000000000000
 0.000000000000    0.000000000000   -93357.098305698557

-50150.248962986501   -0.002578621945    0.000000000000
-0.002578621945   -117731.934092001611    0.000000000000
 0.000000000000    0.000000000000   -93357.097984267166

-50150.248382058773   -0.003643409734    0.000000000000
-0.003643409734   -117731.933062237324    0.000000000000
 0.000000000000    0.000000000000   -93357.097176587689

-50150.248558340245   -0.004007863978    0.000000000000
-0.004007863978   -117731.933374717628    0.000000000000
 0.000000000000    0.000000000000   -93357.097503692334

-50150.249363119947   -0.002988593837    0.000000000000
-0.002988593837   -117731.934801287134    0.000000000000
 0.000000000000    0.000000000000   -93357.098780901404

-50150.248527418415   -0.002946446066    0.000000000000
-0.002946446066   -117731.933319905773    0.000000000000
 0.000000000000    0.000000000000   -93357.097564115204

-50150.248476626635   -0.004242910856    0.000000000000
-0.004242910856   -117731.933229870425    0.000000000000
 0.000000000000    0.000000000000   -93357.097397224847

-50150.248932440081   -0.003650047721    0.000000000000
-0.003650047721   -117731.934037854371    0.000000000000
 0.000000000000    0.000000000000   -93357.097991558272

-50150.249512695533   -0.001401085542    0.000000000000
-0.001401085542   -117731.935066427162    0.000000000000
 0.000000000000    0.000000000000   -93357.098788343632

-50150.250005761438   -0.001596167044    0.000000000000
-0.001596167044   -117731.935940445546    0.000000000000
 0.000000000000    0.000000000000   -93357.099476338175

-50150.250069387483   -0.001584385727    0.000000000000
-0.001584385727   -117731.936053230311    0.000000000000
 0.000000000000    0.000000000000   -93357.099555654117

-50150.250149844091    0.000728561839    0.000000000000
 0.000728561839   -117731.936195849499    0.000000000000
 0.000000000000    0.000000000000   -93357.099695074678

-50150.250003843117    0.000511709005    0.000000000000
 0.000511709005   -117731.935937045462    0.000000000000
 0.000000000000    0.000000000000   -93357.099526626058

-50150.248968913467   -0.000788601569    0.000000000000
-0.000788601569   -117731.934102508501    0.000000000000
 0.000000000000    0.000000000000   -93357.098072255030

-50150.247760568120   -0.001194877396    0.000000000000
-0.001194877396   -117731.931960571499    0.000000000000
 0.000000000000    0.000000000000   -93357.096391736530

-50150.247383718270   -0.003663014726    0.000000000000
-0.003663014726   -117731.931292560039    0.000000000000
 0.000000000000    0.000000000000   -93357.095986573229

-50150.247554995120   -0.004955915027    0.000000000000
-0.004955915027   -117731.931596169190    0.000000000000
 0.000000000000    0.000000000000   -93357.096416026499

-50150.247196511365   -0.006289363782    0.000000000000
-0.006289363782   -117731.930960713187    0.000000000000
 0.000000000000    0.000000000000   -93357.095921181797

-50150.247729047755   -0.005392836025    0.000000000000
-0.005392836025   -117731.931904698475    0.000000000000
 0.000000000000    0.000000000000   -93357.096722081857

-50150.248238062282   -0.005602435615    0.000000000000
-0.005602435615   -117731.932806987286    0.000000000000
 0.000000000000    0.000000000000   -93357.097361159933

-50150.249223011895   -0.002318772227    0.000000000000
-0.002318772227   -117731.934552929801    0.000000000000
 0.000000000000    0.000000000000   -93357.098785146663

-50150.250299920706    0.000611619595    0.000000000000
 0.000611619595   -117731.936461879697    0.000000000000
 0.000000000000    0.000000000000   -93357.100212967998

-50150.250557180232    0.001606638496    0.000000000000
 0.001606638496   -117731.936917902378    0.000000000000
 0.000000000000    0.000000000000   -93357.100443476374

-50150.250044834625    0.000955553054    0.000000000000
 0.000955553054   -117731.936009707759    0.000000000000
 0.000000000000    0.000000000000   -93357.099579815564

-50150.249263413396   -0.000059424649    0.000000000000
-0.000059424649   -117731.934624544432    0.000000000000
 0.000000000000    0.000000000000   -93357.098368953462

-50150.248906408786   -0.000849813131    0.000000000000
-0.000849813131   -117731.933991710830    0.000000000000
 0.000000000000    0.000000000000   -93357.097848199002

-50150.248812392630   -0.001663963212    0.000000000000
-0.001663963212   -117731.933825056039    0.000000000000
 0.000000000000    0.000000000000   -93357.097758009113

-50150.248386621373   -0.002427244257    0.000000000000
-0.002427244257   -117731.933070325380    0.000000000000
 0.000000000000    0.000000000000   -93357.097181550387

-50150.248257308034   -0.002865537670    0.000000000000
-0.002865537670   -117731.932841102069    0.000000000000
 0.000000000000    0.000000000000   -93357.097046125855

-50150.248900342529   -0.002667429590    0.000000000000
-0.002667429590   -117731.933980958420    0.000000000000
 0.000000000000    0.000000000000   -93357.098062663557

-50150.249613399574   -0.001995347951    0.000000000000
-0.001995347951   -117731.935244938199    0.000000000000
 0.000000000000    0.000000000000   -93357.099176277596

-50150.249725987123   -0.001434195280    0.000000000000
-0.001434195280   -117731.935444513685    0.000000000000
 0.000000000000    0.000000000000   -93357.099440536229

-50150.248976876625   -0.001902456739    0.000000000000
-0.001902456739   -117731.934116625169    0.000000000000
 0.000000000000    0.000000000000   -93357.098325526400

-50150.247883455348   -0.002923392818    0.000000000000
-0.002923392818   -117731.932178403717    0.000000000000
 0.000000000000    0.000000000000   -93357.096596638454

-50150.247835379589   -0.002330028580    0.000000000000
-0.002330028580   -117731.932093183394    0.000000000000
 0.000000000000    0.000000000000   -93357.096434259845

-50150.249899080263   -0.001872516319    0.000000000000
-0.001872516319   -117731.935751340818    0.000000000000
 0.000000000000    0.000000000000   -93357.099433189695

-50150.250324022301   -0.001737879859    0.000000000000
-0.001737879859   -117731.936504601443    0.000000000000
 0.000000000000    0.000000000000   -93357.099997572208

-50150.249594419460   -0.000935282072    0.000000000000
-0.000935282072   -117731.935211292526    0.000000000000
 0.000000000000    0.000000000000   -93357.098874203730

-50150.250711493536    0.000071020909    0.000000000000
 0.000071020909   -117731.937191440855    0.000000000000
 0.000000000000    0.000000000000   -93357.100554787670

-50150.250504436255    0.000369051965    0.000000000000
 0.000369051965   -117731.936824407108    0.000000000000
 0.000000000000    0.000000000000   -93357.100287867797

-50150.248712104498    0.000294633205    0.000000000000
 0.000294633205   -117731.933647283615    0.000000000000
 0.000000000000    0.000000000000   -93357.097668359420

-50150.248443292512   -0.000898412229    0.000000000000
-0.000898412229   -117731.933170782344    0.000000000000
 0.000000000000    0.000000000000   -93357.097336772422

-50150.247528216161   -0.002730812592    0.000000000000
-0.002730812592   -117731.931548699416    0.000000000000
 0.000000000000    0.000000000000   -93357.096036143485

-50150.246386985433   -0.003493274930    0.000000000000
-0.003493274930   -117731.929525730782    0.000000000000
 0.000000000000    0.000000000000   -93357.094403260751

-50150.247215636293   -0.004129952101    0.000000000000
-0.004129952101   -117731.930994614377    0.000000000000
 0.000000000000    0.000000000000   -93357.095737657670

-50150.249493960349   -0.005119640831    0.000000000000
-0.005119640831   -117731.935033218528    0.000000000000
 0.000000000000    0.000000000000   -93357.099350957185

-50150.249829158871   -0.003347470657    0.000000000000
-0.003347470657   -117731.935627398518    0.000000000000
 0.000000000000    0.000000000000   -93357.099829465835

-50150.247759056452   -0.006995117587    0.000000000000
-0.006995117587   -117731.931957891094    0.000000000000
 0.000000000000    0.000000000000   -93357.096639409327

-50150.247260983931   -0.004760112062    0.000000000000
-0.004760112062   -117731.931074998342    0.000000000000
 0.000000000000    0.000000000000   -93357.095833947460

-50150.249383297385   -0.003319768411    0.000000000000
-0.003319768411   -117731.934837054665    0.000000000000
 0.000000000000    0.000000000000   -93357.098963415265

-50150.251488380702   -0.001159880661    0.000000000000
-0.001159880661   -117731.938568568410    0.000000000000
 0.000000000000    0.000000000000   -93357.102065018233

-50150.251979412249   -0.000000880013    0.000000000000
-0.000000880013   -117731.939438980364    0.000000000000
 0.000000000000    0.000000000000   -93357.102670287990

-50150.251033293767    0.000201150494    0.000000000000
 0.000201150494   -117731.937761870984    0.000000000000
 0.000000000000    0.000000000000   -93357.101145917113

-50150.249722155204   -0.000385155908    0.000000000000
-0.000385155908   -117731.935437719847    0.000000000000
 0.000000000000    0.000000000000   -93357.099129178125

-50150.248941899910   -0.001040212322    0.000000000000
-0.001040212322   -117731.934054623402    0.000000000000
 0.000000000000    0.000000000000   -93357.097962387212

-50150.248399040443   -0.001408307341    0.000000000000
-0.001408307341   -117731.933092339750    0.000000000000
 0.000000000000    0.000000000000   -93357.097184479819

-50150.247976843151   -0.002491976882    0.000000000000
-0.002491976882   -117731.932343944296    0.000000000000
 0.000000000000    0.000000000000   -93357.096598644668

-50150.248087600339   -0.003522570495    0.000000000000
-0.003522570495   -117731.932540274691    0.000000000000
 0.000000000000    0.000000000000   -93357.096806115151

-50150.248648198838   -0.003118620646    0.000000000000
-0.003118620646   -117731.933534003270    0.000000000000
 0.000000000000    0.000000000000   -93357.097681237428

-50150.249400203655   -0.002083561348    0.000000000000
-0.002083561348   -117731.934867022705    0.000000000000
 0.000000000000    0.000000000000   -93357.098839853439

-50150.250131023415   -0.000971771600    0.000000000000
-0.000971771600   -117731.936162488943    0.000000000000
 0.000000000000    0.000000000000   -93357.099967844857

-50150.249886208207   -0.000437293593    0.000000000000
-0.000437293593   -117731.935728524782    0.000000000000
 0.000000000000    0.000000000000   -93357.099642654503

-50150.250307461203   -0.000561611341    0.000000000000
-0.000561611341   -117731.936475246650    0.000000000000
 0.000000000000    0.000000000000   -93357.100325391613

-50150.247448626098   -0.002252121970    0.000000000000
-0.002252121970   -117731.931407617289    0.000000000000
 0.000000000000    0.000000000000   -93357.096079019815

-50150.247961587549   -0.004749900179    0.000000000000
-0.004749900179   -117731.932316902094    0.000000000000
 0.000000000000    0.000000000000   -93357.096762220477

-50150.247941922949   -0.004013554955    0.000000000000
-0.004013554955   -117731.932282044014    0.000000000000
 0.000000000000    0.000000000000   -93357.096645004509

-50150.249023205768   -0.001186184701    0.000000000000
-0.001186184701   -117731.934198748175    0.000000000000
 0.000000000000    0.000000000000   -93357.098176561427

-50150.250483362732   -0.001508792147    0.000000000000
-0.001508792147   -117731.936787051731    0.000000000000
 0.000000000000    0.000000000000   -93357.100286172630

-50150.250010030839   -0.002107337973    0.000000000000
-0.002107337973   -117731.935948013735    0.000000000000
 0.000000000000    0.000000000000   -93357.099534964611

-50150.250233897350   -0.000551912407    0.000000000000
-0.000551912407   -117731.936344844202    0.000000000000
 0.000000000000    0.000000000000   -93357.099862106494

-50150.250951685295   -0.000789524738    0.000000000000
-0.000789524738   -117731.937617209769    0.000000000000
 0.000000000000    0.000000000000   -93357.100957193616

-50150.249445965281   -0.001395151017    0.000000000000
-0.001395151017   -117731.934948139999    0.000000000000
 0.000000000000    0.000000000000   -93357.098753238999

-50150.248232307211   -0.000717475512    0.000000000000
-0.000717475512   -117731.932796785404    0.000000000000
 0.000000000000    0.000000000000   -93357.096999297079

-50150.248072261835   -0.002420704898    0.000000000000
-0.002420704898   -117731.932513085747    0.000000000000
 0.000000000000    0.000000000000   -93357.096821458646

-50150.246973415226   -0.003877018259    0.000000000000
-0.003877018259   -117731.930565247749    0.000000000000
 0.000000000000    0.000000000000   -93357.095221252457

-50150.247006803766   -0.003123163599    0.000000000000
-0.003123163599   -117731.930624433313    0.000000000000
 0.000000000000    0.000000000000   -93357.095307414507

-50150.247600037677   -0.002416388199    0.000000000000
-0.002416388199   -117731.931676012493    0.000000000000
 0.000000000000    0.000000000000   -93357.096320843033

-50150.253044438869   -0.002927891877    0.000000000000
-0.002927891877   -117731.941326870030    0.000000000000
 0.000000000000    0.000000000000   -93357.104773128711

-50150.248561223751   -0.006222333126    0.000000000000
-0.006222333126   -117731.933379829279    0.000000000000
 0.000000000000    0.000000000000   -93357.097775197064

-50150.244202131849   -0.006055866912    0.000000000000
-0.006055866912   -117731.925652813923    0.000000000000
 0.000000000000    0.000000000000   -93357.091297048231

-50150.248577094302   -0.004387825650    0.000000000000
-0.004387825650   -117731.933407962177    0.000000000000
 0.000000000000    0.000000000000   -93357.097753701877

-50150.250851050703   -0.001504532494    0.000000000000
-0.001504532494   -117731.937438823865    0.000000000000
 0.000000000000    0.000000000000   -93357.101049933466

-50150.252183785517    0.000564189943    0.000000000000
 0.000564189943   -117731.939801256784    0.000000000000
 0.000000000000    0.000000000000   -93357.103023196731

-50150.251637465248    0.000431704211    0.000000000000
 0.000431704211   -117731.938832838001    0.000000000000
 0.000000000000    0.000000000000   -93357.102127003905

-50150.250164954661   -0.000304858098    0.000000000000
-0.000304858098   -117731.936222635355    0.000000000000
 0.000000000000    0.000000000000   -93357.099835550121

-50150.249035406305   -0.000870559290    0.000000000000
-0.000870559290   -117731.934220374824    0.000000000000
 0.000000000000    0.000000000000   -93357.098118883194

-50150.248454472610   -0.001178400639    0.000000000000
-0.001178400639   -117731.933190600073    0.000000000000
 0.000000000000    0.000000000000   -93357.097287181095

-50150.247867674014   -0.001556376075    0.000000000000
-0.001556376075   -117731.932150429144    0.000000000000
 0.000000000000    0.000000000000   -93357.096465830036

-50150.247736069679   -0.002107739645    0.000000000000
-0.002107739645   -117731.931917144742    0.000000000000
 0.000000000000    0.000000000000   -93357.096310907204

-50150.248345537970   -0.002300857842    0.000000000000
-0.002300857842   -117731.932997500757    0.000000000000
 0.000000000000    0.000000000000   -93357.097249557439

-50150.249234015668   -0.002052461451    0.000000000000
-0.002052461451   -117731.934572434518    0.000000000000
 0.000000000000    0.000000000000   -93357.098601226142

-50150.250259945955   -0.001436883655    0.000000000000
-0.001436883655   -117731.936391019612    0.000000000000
 0.000000000000    0.000000000000   -93357.100153061605

-50150.251060912487   -0.000828100015    0.000000000000
-0.000828100015   -117731.937810829200    0.000000000000
 0.000000000000    0.000000000000   -93357.101346542957

-50150.250687315383   -0.000295791755    0.000000000000
-0.000295791755   -117731.937148583689    0.000000000000
 0.000000000000    0.000000000000   -93357.100847405149

-50150.250252574493   -0.000265609162    0.000000000000
-0.000265609162   -117731.936377953476    0.000000000000
 0.000000000000    0.000000000000   -93357.100275283607

-50150.250263120113   -0.000079986572    0.000000000000
-0.000079986572   -117731.936396646983    0.000000000000
 0.000000000000    0.000000000000   -93357.100311405389

-50150.247718814207   -0.002398014354    0.000000000000
-0.002398014354   -117731.931886558101    0.000000000000
 0.000000000000    0.000000000000   -93357.096463927810

-50150.247313386906   -0.002075828745    0.000000000000
-0.002075828745   -117731.931167889168    0.000000000000
 0.000000000000    0.000000000000   -93357.095786193066

-50150.249036932990   -0.002140641291    0.000000000000
-0.002140641291   -117731.934223081655    0.000000000000
 0.000000000000    0.000000000000   -93357.098286441673

-50150.249805659900   -0.000983441882    0.000000000000
-0.000983441882   -117731.935585742423    0.000000000000
 0.000000000000    0.000000000000   -93357.099364222711

-50150.249917247442   -0.001199851327    0.000000000000
-0.001199851327   -117731.935783544497    0.000000000000
 0.000000000000    0.000000000000   -93357.099476327450

-50150.250300074375   -0.001231289673    0.000000000000
-0.001231289673   -117731.936462151221    0.000000000000
 0.000000000000    0.000000000000   -93357.100027973240

-50150.250414786336    0.000088564663    0.000000000000
 0.000088564663   -117731.936665492103    0.000000000000
 0.000000000000    0.000000000000   -93357.100213890488

-50150.249946978365   -0.000387228193    0.000000000000
-0.000387228193   -117731.935836246354    0.000000000000
 0.000000000000    0.000000000000   -93357.099551110441

-50150.249284654987   -0.001458146628    0.000000000000
-0.001458146628   -117731.934662198531    0.000000000000
 0.000000000000    0.000000000000   -93357.098606874919

-50150.248280497115   -0.001455051702    0.000000000000
-0.001455051702   -117731.932882208057    0.000000000000
 0.000000000000    0.000000000000   -93357.097140034428

-50150.247432664721   -0.002663894292    0.000000000000
-0.002663894292   -117731.931379322923    0.000000000000
 0.000000000000    0.000000000000   -93357.095872946593

-50150.247459913910   -0.004305589601    0.000000000000
-0.004305589601   -117731.931427624746    0.000000000000
 0.000000000000    0.000000000000   -93357.095881475529

-50150.248041361876   -0.003994606472    0.000000000000
-0.003994606472   -117731.932458310970    0.000000000000
 0.000000000000    0.000000000000   -93357.096700475697

-50150.250115315546   -0.001629052203    0.000000000000
-0.001629052203   -117731.936134644697    0.000000000000
 0.000000000000    0.000000000000   -93357.099938799860

-50150.248504878029    0.000368559877    0.000000000000
 0.000368559877   -117731.933279951423    0.000000000000
 0.000000000000    0.000000000000   -93357.097718944700

-50150.250734004716   -0.001994186185    0.000000000000
-0.001994186185   -117731.937231346936    0.000000000000
 0.000000000000    0.000000000000   -93357.101136649784

-50150.248636530770   -0.003238653432    0.000000000000
-0.003238653432   -117731.933513321128    0.000000000000
 0.000000000000    0.000000000000   -93357.097881105772

-50150.247059324072   -0.003433395146    0.000000000000
-0.003433395146   -117731.930717532727    0.000000000000
 0.000000000000    0.000000000000   -93357.095586002280

-50150.250284015128   -0.004579177829    0.000000000000
-0.004579177829   -117731.936433684721    0.000000000000
 0.000000000000    0.000000000000   -93357.100467331431

-50150.249879316107   -0.003062002784    0.000000000000
-0.003062002784   -117731.935716307111    0.000000000000
 0.000000000000    0.000000000000   -93357.099656391249

-50150.252844191513   -0.000543801780    0.000000000000
-0.000543801780   -117731.940971905366    0.000000000000
 0.000000000000    0.000000000000   -93357.103906659133

-50150.252978612712   -0.000514942455    0.000000000000
-0.000514942455   -117731.941210183199    0.000000000000
 0.000000000000    0.000000000000   -93357.104117440293

-50150.251492479380   -0.001464890680    0.000000000000
-0.001464890680   -117731.938575833075    0.000000000000
 0.000000000000    0.000000000000   -93357.101917325068

-50150.250037624544   -0.002113741522    0.000000000000
-0.002113741522   -117731.935996927554    0.000000000000
 0.000000000000    0.000000000000   -93357.099715039061

-50150.248930387694   -0.002105895659    0.000000000000
-0.002105895659   -117731.934034217091    0.000000000000
 0.000000000000    0.000000000000   -93357.098071297107

-50150.248116966352   -0.002273537009    0.000000000000
-0.002273537009   -117731.932592330006    0.000000000000
 0.000000000000    0.000000000000   -93357.096903813566

-50150.247655917643   -0.002582141671    0.000000000000
-0.002582141671   -117731.931775065867    0.000000000000
 0.000000000000    0.000000000000   -93357.096258340855

-50150.247786997745   -0.002400777579    0.000000000000
-0.002400777579   -117731.932007421245    0.000000000000
 0.000000000000    0.000000000000   -93357.096476699866

-50150.248557270243   -0.001873553517    0.000000000000
-0.001873553517   -117731.933372822037    0.000000000000
 0.000000000000    0.000000000000   -93357.097635256563

-50150.249575219699   -0.000908837147    0.000000000000
-0.000908837147   -117731.935177260078    0.000000000000
 0.000000000000    0.000000000000   -93357.099151169372

-50150.250417002550   -0.000137460676    0.000000000000
-0.000137460676   -117731.936669421440    0.000000000000
 0.000000000000    0.000000000000   -93357.100396873488

-50150.250545665913   -0.000676944977    0.000000000000
-0.000676944977   -117731.936897492735    0.000000000000
 0.000000000000    0.000000000000   -93357.100586331217

-50150.250589470495   -0.000356259989    0.000000000000
-0.000356259989   -117731.936975141551    0.000000000000
 0.000000000000    0.000000000000   -93357.100634626768

-50150.250375302894   -0.000254224017    0.000000000000
-0.000254224017   -117731.936595503794    0.000000000000
 0.000000000000    0.000000000000   -93357.100335434632

-50150.250291066463   -0.000310234232    0.000000000000
-0.000310234232   -117731.936446185049    0.000000000000
 0.000000000000    0.000000000000   -93357.100313496136

-50150.249730239055    0.000242797817    0.000000000000
 0.000242797817   -117731.935452051257    0.000000000000
 0.000000000000    0.000000000000   -93357.099538475246

-50150.248285993672   -0.001495163208    0.000000000000
-0.001495163208   -117731.932891952485    0.000000000000
 0.000000000000    0.000000000000   -93357.097401662366

-50150.247867176207   -0.003665530183    0.000000000000
-0.003665530183   -117731.932149547370    0.000000000000
 0.000000000000    0.000000000000   -93357.096704767828

-50150.246791032230   -0.002571064740    0.000000000000
-0.002571064740   -117731.930241952708    0.000000000000
 0.000000000000    0.000000000000   -93357.095052031334

-50150.247922848837   -0.002776242384    0.000000000000
-0.002776242384   -117731.932248233512    0.000000000000
 0.000000000000    0.000000000000   -93357.096672716318

-50150.250397358250   -0.000656005383    0.000000000000
-0.000656005383   -117731.936634599217    0.000000000000
 0.000000000000    0.000000000000   -93357.100302994251

-50150.249503754378    0.000327290044    0.000000000000
 0.000327290044   -117731.935050578613    0.000000000000
 0.000000000000    0.000000000000   -93357.098916860428

-50150.249779496429   -0.002492669785    0.000000000000
-0.002492669785   -117731.935539364204    0.000000000000
 0.000000000000    0.000000000000   -93357.099296510176

-50150.251270850706   -0.001222790400    0.000000000000
-0.001222790400   -117731.938182969287    0.000000000000
 0.000000000000    0.000000000000   -93357.101518157928

-50150.249737272861   -0.000101407204    0.000000000000
-0.000101407204   -117731.935464518174    0.000000000000
 0.000000000000    0.000000000000   -93357.099251549909

-50150.249069727361   -0.003153659322    0.000000000000
-0.003153659322   -117731.934281213224    0.000000000000
 0.000000000000    0.000000000000   -93357.098295351869

-50150.249530295558   -0.002608782241    0.000000000000
-0.002608782241   -117731.935097626061    0.000000000000
 0.000000000000    0.000000000000   -93357.099021624905

-50150.247537854593   -0.001760427864    0.000000000000
-0.001760427864   -117731.931565784907    0.000000000000
 0.000000000000    0.000000000000   -93357.096057671995

-50150.247113175414   -0.003905686337    0.000000000000
-0.003905686337   -117731.930812989274    0.000000000000
 0.000000000000    0.000000000000   -93357.095382716347

-50150.248899517042   -0.001752885061    0.000000000000
-0.001752885061   -117731.933979494876    0.000000000000
 0.000000000000    0.000000000000   -93357.097971328854

-50150.249478524158    0.001283768308    0.000000000000
 0.001283768308   -117731.935005854612    0.000000000000
 0.000000000000    0.000000000000   -93357.098810496813

-50150.251111600621   -0.000513498470    0.000000000000
-0.000513498470   -117731.937900679855    0.000000000000
 0.000000000000    0.000000000000   -93357.101383198096

-50150.252614945464    0.001530236675    0.000000000000
 0.001530236675   -117731.940565540412    0.000000000000
 0.000000000000    0.000000000000   -93357.103853932756

-50150.253174536585   -0.001600633329    0.000000000000
-0.001600633329   -117731.941557482816    0.000000000000
 0.000000000000    0.000000000000   -93357.104653290677

-50150.251409309974   -0.000181905935    0.000000000000
-0.000181905935   -117731.938428406924    0.000000000000
 0.000000000000    0.000000000000   -93357.102143825003

-50150.246799893255   -0.004093691380    0.000000000000
-0.004093691380   -117731.930257660249    0.000000000000
 0.000000000000    0.000000000000   -93357.095210328625

-50150.244678845906   -0.001552275413    0.000000000000
-0.001552275413   -117731.926497849519    0.000000000000
 0.000000000000    0.000000000000   -93357.092205347508

-50150.239072910146    0.001261941682    0.000000000000
 0.001261941682   -117731.916560654063    0.000000000000
 0.000000000000    0.000000000000   -93357.083847151720

-50150.246875677331    0.000981416353    0.000000000000
 0.000981416353   -117731.930391996983    0.000000000000
 0.000000000000    0.000000000000   -93357.095360999519

-50150.252285493523    0.003248635319    0.000000000000
 0.003248635319   -117731.939981545904    0.000000000000
 0.000000000000    0.000000000000   -93357.103191050875

-50150.252769404397    0.001267625513    0.000000000000
 0.001267625513   -117731.940839335992    0.000000000000
 0.000000000000    0.000000000000   -93357.103762290557

-50150.251669745106   -0.001460269491    0.000000000000
-0.001460269491   -117731.938890057674    0.000000000000
 0.000000000000    0.000000000000   -93357.102136722460

-50150.250414018927   -0.002399224402    0.000000000000
-0.002399224402   -117731.936664131907    0.000000000000
 0.000000000000    0.000000000000   -93357.100295769837

-50150.249314847475   -0.002334783386    0.000000000000
-0.002334783386   -117731.934715718380    0.000000000000
 0.000000000000    0.000000000000   -93357.098683081538

-50150.248381894780   -0.002084743475    0.000000000000
-0.002084743475   -117731.933061947770    0.000000000000
 0.000000000000    0.000000000000   -93357.097339884422

-50150.247734148739   -0.002022021673    0.000000000000
-0.002022021673   -117731.931913740205    0.000000000000
 0.000000000000    0.000000000000   -93357.096419522961

-50150.247648486446   -0.001875255772    0.000000000000
-0.001875255772   -117731.931761893604    0.000000000000
 0.000000000000    0.000000000000   -93357.096314894719

-50150.248234442246   -0.001491142295    0.000000000000
-0.001491142295   -117731.932800570823    0.000000000000
 0.000000000000    0.000000000000   -93357.097191947629

-50150.249347255638   -0.000988014334    0.000000000000
-0.000988014334   -117731.934773166460    0.000000000000
 0.000000000000    0.000000000000   -93357.098843177839

-50150.250278183332   -0.000437294872    0.000000000000
-0.000437294872   -117731.936423347797    0.000000000000
 0.000000000000    0.000000000000   -93357.100213924146

-50150.250511000660   -0.000526113565    0.000000000000
-0.000526113565   -117731.936836044420    0.000000000000
 0.000000000000    0.000000000000   -93357.100533813165

-50150.250870838150   -0.000499146431    0.000000000000
-0.000499146431   -117731.937473899539    0.000000000000
 0.000000000000    0.000000000000   -93357.101048608049

-50150.251005648672   -0.000590294980    0.000000000000
-0.000590294980   -117731.937712867279    0.000000000000
 0.000000000000    0.000000000000   -93357.101222182187

-50150.250535916217   -0.000391312980    0.000000000000
-0.000391312980   -117731.936880210211    0.000000000000
 0.000000000000    0.000000000000   -93357.100572031515

-50150.250211110702    0.000022774805    0.000000000000
 0.000022774805   -117731.936304453935    0.000000000000
 0.000000000000    0.000000000000   -93357.100209212527

-50150.250202991228    0.000105949681    0.000000000000
 0.000105949681   -117731.936290061509    0.000000000000
 0.000000000000    0.000000000000   -93357.100273047850

-50150.249370631675   -0.000369047524    0.000000000000
-0.000369047524   -117731.934814604014    0.000000000000
 0.000000000000    0.000000000000   -93357.099033113787

-50150.246800286957   -0.002162076919    0.000000000000
-0.002162076919   -117731.930258358392    0.000000000000
 0.000000000000    0.000000000000   -93357.095169524458

-50150.248010035692   -0.002394251255    0.000000000000
-0.002394251255   -117731.932402783394    0.000000000000
 0.000000000000    0.000000000000   -93357.096931656721

-50150.247063948715   -0.002389412013    0.000000000000
-0.002389412013   -117731.930725730024    0.000000000000
 0.000000000000    0.000000000000   -93357.095442375474

-50150.248438299444   -0.000014621630    0.000000000000
-0.000014621630   -117731.933161931986    0.000000000000
 0.000000000000    0.000000000000   -93357.097445838343

-50150.251622512325   -0.000776318716    0.000000000000
-0.000776318716   -117731.938806332386    0.000000000000
 0.000000000000    0.000000000000   -93357.102164088952

-50150.248717778435   -0.001546302278    0.000000000000
-0.001546302278   -117731.933657341797    0.000000000000
 0.000000000000    0.000000000000   -93357.097798636532

-50150.248890208532    0.000273957388    0.000000000000
 0.000273957388   -117731.933962994983    0.000000000000
 0.000000000000    0.000000000000   -93357.098054372764

-50150.251868984000   -0.000668889835    0.000000000000
-0.000668889835   -117731.939243233064    0.000000000000
 0.000000000000    0.000000000000   -93357.102520550179

-50150.248606848254   -0.001985514893    0.000000000000
-0.001985514893   -117731.933460704749    0.000000000000
 0.000000000000    0.000000000000   -93357.097666555943

-50150.248073766154   -0.001064893299    0.000000000000
-0.001064893299   -117731.932515752851    0.000000000000
 0.000000000000    0.000000000000   -93357.096890794623

-50150.250560118060   -0.002558547608    0.000000000000
-0.002558547608   -117731.936923110610    0.000000000000
 0.000000000000    0.000000000000   -93357.100608309498

-50150.247470211107   -0.003889842358    0.000000000000
-0.003889842358   -117731.931445878174    0.000000000000
 0.000000000000    0.000000000000   -93357.095952457123

-50150.247779527868   -0.002408611923    0.000000000000
-0.002408611923   -117731.931994179293    0.000000000000
 0.000000000000    0.000000000000   -93357.096339107520

-50150.251797133256   -0.002004981005    0.000000000000
-0.002004981005   -117731.939115868183    0.000000000000
 0.000000000000    0.000000000000   -93357.102286435256

-50150.249973226331   -0.000620004124    0.000000000000
-0.000620004124   -117731.935882773570    0.000000000000
 0.000000000000    0.000000000000   -93357.099510592787

-50150.249742641368   -0.000025168922    0.000000000000
-0.000025168922   -117731.935474033497    0.000000000000
 0.000000000000    0.000000000000   -93357.099039459848

-50150.249789099500   -0.003533163013    0.000000000000
-0.003533163013   -117731.935556385288    0.000000000000
 0.000000000000    0.000000000000   -93357.099133581985

-50150.251530673821   -0.001255232768    0.000000000000
-0.001255232768   -117731.938643535890    0.000000000000
 0.000000000000    0.000000000000   -93357.101729373593

-50150.251498249811   -0.002643395501    0.000000000000
-0.002643395501   -117731.938586062315    0.000000000000
 0.000000000000    0.000000000000   -93357.102081463265

-50150.249965199459    0.002143273498    0.000000000000
 0.002143273498   -117731.935868546527    0.000000000000
 0.000000000000    0.000000000000   -93357.099925302711

-50150.248721992750    0.001074081333    0.000000000000
 0.001074081333   -117731.933664813143    0.000000000000
 0.000000000000    0.000000000000   -93357.098023806146

-50150.242855587130   -0.000425870989    0.000000000000
-0.000425870989   -117731.923265904072    0.000000000000
 0.000000000000    0.000000000000   -93357.089518291628

-50150.241167317217   -0.004197975161    0.000000000000
-0.004197975161   -117731.920273242489    0.000000000000
 0.000000000000    0.000000000000   -93357.087106386229

-50150.246446165453    0.000871407383    0.000000000000
 0.000871407383   -117731.929630636587    0.000000000000
 0.000000000000    0.000000000000   -93357.094907417355

-50150.249199604557    0.005670004091    0.000000000000
 0.005670004091   -117731.934511436062    0.000000000000
 0.000000000000    0.000000000000   -93357.098679499439

-50150.251510083275    0.002063763632    0.000000000000
 0.002063763632   -117731.938607038057    0.000000000000
 0.000000000000    0.000000000000   -93357.101981625048

-50150.251371196267   -0.001084206174    0.000000000000
-0.001084206174   -117731.938360844098    0.000000000000
 0.000000000000    0.000000000000   -93357.101715534038

-50150.250692420304   -0.002598093994    0.000000000000
-0.002598093994   -117731.937157631881    0.000000000000
 0.000000000000    0.000000000000   -93357.100724944015

-50150.250096825272   -0.003615516621    0.000000000000
-0.003615516621   -117731.936101868152    0.000000000000
 0.000000000000    0.000000000000   -93357.099919051485

-50150.249344573749   -0.003797528810    0.000000000000
-0.003797528810   -117731.934768412044    0.000000000000
 0.000000000000    0.000000000000   -93357.098863027582

-50150.248465724530   -0.003473400551    0.000000000000
-0.003473400551   -117731.933210546325    0.000000000000
 0.000000000000    0.000000000000   -93357.097587106400

-50150.247955175859   -0.002842506646    0.000000000000
-0.002842506646   -117731.932305537659    0.000000000000
 0.000000000000    0.000000000000   -93357.096846274246

-50150.248122814548   -0.001859212268    0.000000000000
-0.001859212268   -117731.932602697605    0.000000000000
 0.000000000000    0.000000000000   -93357.097104224464

-50150.248740253635   -0.000642811555    0.000000000000
-0.000642811555   -117731.933697182743    0.000000000000
 0.000000000000    0.000000000000   -93357.098014587726

-50150.249517123535    0.000256986500    0.000000000000
 0.000256986500   -117731.935074278008    0.000000000000
 0.000000000000    0.000000000000   -93357.099141266721

-50150.250104450926    0.000192002924    0.000000000000
 0.000192002924   -117731.936115386256    0.000000000000
 0.000000000000    0.000000000000   -93357.099967680944

-50150.250568200274   -0.000048453430    0.000000000000
-0.000048453430   -117731.936937437538    0.000000000000
 0.000000000000    0.000000000000   -93357.100607276094

-50150.250827309923   -0.000268229298    0.000000000000
-0.000268229298   -117731.937396740337    0.000000000000
 0.000000000000    0.000000000000   -93357.100948910957

-50150.250751000058   -0.000591770486    0.000000000000
-0.000591770486   -117731.937261471816    0.000000000000
 0.000000000000    0.000000000000   -93357.100810579155

-50150.250604084576   -0.000598830549    0.000000000000
-0.000598830549   -117731.937001046288    0.000000000000
 0.000000000000    0.000000000000   -93357.100555848796

-50150.250593258221   -0.000698205845    0.000000000000
-0.000698205845   -117731.936981855542    0.000000000000
 0.000000000000    0.000000000000   -93357.100599576253

-50150.250383567909   -0.000216177339    0.000000000000
-0.000216177339   -117731.936610154866    0.000000000000
 0.000000000000    0.000000000000   -93357.100420037139

-50150.249707071867   -0.000165644774    0.000000000000
-0.000165644774   -117731.935410984705    0.000000000000
 0.000000000000    0.000000000000   -93357.099514740810

-50150.250299395346    0.001164325672    0.000000000000
 0.001164325672   -117731.936460949451    0.000000000000
 0.000000000000    0.000000000000   -93357.100445571981

-50150.247988151415   -0.001421952356    0.000000000000
-0.001421952356   -117731.932363991247    0.000000000000
 0.000000000000    0.000000000000   -93357.096969812323

-50150.247873308981   -0.001104341404    0.000000000000
-0.001104341404   -117731.932160419179    0.000000000000
 0.000000000000    0.000000000000   -93357.096752017562

-50150.246820387008   -0.000195941947    0.000000000000
-0.000195941947   -117731.930293988000    0.000000000000
 0.000000000000    0.000000000000   -93357.095144615916

-50150.247897751928   -0.006502548438    0.000000000000
-0.006502548438   -117731.932203745091    0.000000000000
 0.000000000000    0.000000000000   -93357.096715530206

-50150.247798411772    0.000263333808    0.000000000000
 0.000263333808   -117731.932027653529    0.000000000000
 0.000000000000    0.000000000000   -93357.096533282485

-50150.250082911720    0.005142748977    0.000000000000
 0.005142748977   -117731.936077203834    0.000000000000
 0.000000000000    0.000000000000   -93357.099909121753

-50150.250276991181   -0.005784057054    0.000000000000
-0.005784057054   -117731.936421232676    0.000000000000
 0.000000000000    0.000000000000   -93357.100175034153

-50150.248617549863   -0.000961747666    0.000000000000
-0.000961747666   -117731.933479673986    0.000000000000
 0.000000000000    0.000000000000   -93357.097689129921

-50150.250486886696    0.003929304821    0.000000000000
 0.003929304821   -117731.936793298548    0.000000000000
 0.000000000000    0.000000000000   -93357.100483030154

-50150.250254120008   -0.006629834350    0.000000000000
-0.006629834350   -117731.936380690429    0.000000000000
 0.000000000000    0.000000000000   -93357.100148525584

-50150.248001241285   -0.002289839474    0.000000000000
-0.002289839474   -117731.932387192865    0.000000000000
 0.000000000000    0.000000000000   -93357.096804371657

-50150.249505872693    0.002138577640    0.000000000000
 0.002138577640   -117731.935054333793    0.000000000000
 0.000000000000    0.000000000000   -93357.099061768822

-50150.249303153680   -0.007990047625    0.000000000000
-0.007990047625   -117731.934694987402    0.000000000000
 0.000000000000    0.000000000000   -93357.098737779917

-50150.247548314874   -0.002299229587    0.000000000000
-0.002299229587   -117731.931584325910    0.000000000000
 0.000000000000    0.000000000000   -93357.096054752139

-50150.250180144605    0.004127872796    0.000000000000
 0.004127872796   -117731.936249560531    0.000000000000
 0.000000000000    0.000000000000   -93357.099894527564

-50150.251629475097   -0.004595976648    0.000000000000
-0.004595976648   -117731.938818672672    0.000000000000
 0.000000000000    0.000000000000   -93357.101963132125

-50150.249888570441    0.001009522657    0.000000000000
 0.001009522657   -117731.935732709477    0.000000000000
 0.000000000000    0.000000000000   -93357.099244108627

-50150.250676004405    0.004418671356    0.000000000000
 0.004418671356   -117731.937128529913    0.000000000000
 0.000000000000    0.000000000000   -93357.100320166821

-50150.251103636401   -0.000200833025    0.000000000000
-0.000200833025   -117731.937886560438    0.000000000000
 0.000000000000    0.000000000000   -93357.100985448415

-50150.252316171158    0.001657788301    0.000000000000
 0.001657788301   -117731.940035925276    0.000000000000
 0.000000000000    0.000000000000   -93357.103141085041

-50150.251621577409   -0.005082074652    0.000000000000
-0.005082074652   -117731.938804673788    0.000000000000
 0.000000000000    0.000000000000   -93357.102194740568

-50150.249466867957   -0.000228228408    0.000000000000
-0.000228228408   -117731.934985193977    0.000000000000
 0.000000000000    0.000000000000   -93357.099096732432

-50150.250676970361   -0.000633840493    0.000000000000
-0.000633840493   -117731.937130246224    0.000000000000
 0.000000000000    0.000000000000   -93357.100981175856

-50150.246703026001    0.000655395255    0.000000000000
 0.000655395255   -117731.930085952510    0.000000000000
 0.000000000000    0.000000000000   -93357.095316977167

-50150.245095193408   -0.003136544170    0.000000000000
-0.003136544170   -117731.927235875133    0.000000000000
 0.000000000000    0.000000000000   -93357.092837620963

-50150.246634745439   -0.008724311696    0.000000000000
-0.008724311696   -117731.929964913055    0.000000000000
 0.000000000000    0.000000000000   -93357.094923712895

-50150.248266069626    0.001850446984    0.000000000000
 0.001850446984   -117731.932856635423    0.000000000000
 0.000000000000    0.000000000000   -93357.097560553564

-50150.248946175328    0.006712557509    0.000000000000
 0.006712557509   -117731.934062201937    0.000000000000
 0.000000000000    0.000000000000   -93357.098350788088

-50150.249769780079    0.006623822098    0.000000000000
 0.006623822098   -117731.935522140033    0.000000000000
 0.000000000000    0.000000000000   -93357.099475695213

-50150.250765932215    0.001928826909    0.000000000000
 0.001928826909   -117731.937287941022    0.000000000000
 0.000000000000    0.000000000000   -93357.100910906054

-50150.250360966544   -0.001333532181    0.000000000000
-0.001333532181   -117731.936570090402    0.000000000000
 0.000000000000    0.000000000000   -93357.100229157513

-50150.249699755637   -0.003112798079    0.000000000000
-0.003112798079   -117731.935398014321    0.000000000000
 0.000000000000    0.000000000000   -93357.099270637875

-50150.249363140203   -0.003660626346    0.000000000000
-0.003660626346   -117731.934801323383    0.000000000000
 0.000000000000    0.000000000000   -93357.098891402216

-50150.248816406151   -0.003527770738    0.000000000000
-0.003527770738   -117731.933832171955    0.000000000000
 0.000000000000    0.000000000000   -93357.098167981094

-50150.248245101888   -0.003004266624    0.000000000000
-0.003004266624   -117731.932819466674    0.000000000000
 0.000000000000    0.000000000000   -93357.097340680077

-50150.248186036421   -0.002094694528    0.000000000000
-0.002094694528   -117731.932714766182    0.000000000000
 0.000000000000    0.000000000000   -93357.097246198900

-50150.248697894131   -0.001021900896    0.000000000000
-0.001021900896   -117731.933622095617    0.000000000000
 0.000000000000    0.000000000000   -93357.097991068120

-50150.249434782207   -0.000055241613    0.000000000000
-0.000055241613   -117731.934928318282    0.000000000000
 0.000000000000    0.000000000000   -93357.099058690554

-50150.250007379538    0.000456003628    0.000000000000
 0.000456003628   -117731.935943315737    0.000000000000
 0.000000000000    0.000000000000   -93357.099864512653

-50150.250408205917    0.000377170563    0.000000000000
 0.000377170563   -117731.936653828438    0.000000000000
 0.000000000000    0.000000000000   -93357.100400613577

-50150.250724131605    0.000051053305    0.000000000000
 0.000051053305   -117731.937213844445    0.000000000000
 0.000000000000    0.000000000000   -93357.100810262345

-50150.250721272387   -0.000515851275    0.000000000000
-0.000515851275   -117731.937208775867    0.000000000000
 0.000000000000    0.000000000000   -93357.100749957346

-50150.250652872899   -0.000752306624    0.000000000000
-0.000752306624   -117731.937087529339    0.000000000000
 0.000000000000    0.000000000000   -93357.100610081136

-50150.250635328579   -0.000856290798    0.000000000000
-0.000856290798   -117731.937056429771    0.000000000000
 0.000000000000    0.000000000000   -93357.100552595861

-50150.250681721343   -0.000587315609    0.000000000000
-0.000587315609   -117731.937138666573    0.000000000000
 0.000000000000    0.000000000000   -93357.100622416692

-50150.250396053685   -0.000380923309    0.000000000000
-0.000380923309   -117731.936632286815    0.000000000000
 0.000000000000    0.000000000000   -93357.100313850504

-50150.250254682549   -0.000098703801    0.000000000000
-0.000098703801   -117731.936381690059    0.000000000000
 0.000000000000    0.000000000000   -93357.100233887570

-50150.249840658296    0.000254780378    0.000000000000
 0.000254780378   -117731.935647782768    0.000000000000
 0.000000000000    0.000000000000   -93357.099722850602

-50150.250332761425   -0.000299829378    0.000000000000
-0.000299829378   -117731.936520095041    0.000000000000
 0.000000000000    0.000000000000   -93357.100514053891

-50150.249419521075    0.002027968000    0.000000000000
 0.002027968000   -117731.934901266330    0.000000000000
 0.000000000000    0.000000000000   -93357.099141307786

-50150.247347722237   -0.006550184900    0.000000000000
-0.006550184900   -117731.931228751564    0.000000000000
 0.000000000000    0.000000000000   -93357.095995564785

-50150.247622869298   -0.002061324847    0.000000000000
-0.002061324847   -117731.931716484221    0.000000000000
 0.000000000000    0.000000000000   -93357.096350468259

-50150.244332908944   -0.001980867928    0.000000000000
-0.001980867928   -117731.925884633674    0.000000000000
 0.000000000000    0.000000000000   -93357.091416684503

-50150.246757038607    0.000512988926    0.000000000000
 0.000512988926   -117731.930181695207    0.000000000000
 0.000000000000    0.000000000000   -93357.095004006158

-50150.253437197447   -0.000172000042    0.000000000000
-0.000172000042   -117731.942023080570    0.000000000000
 0.000000000000    0.000000000000   -93357.104961471181

-50150.247241863748   -0.001248277979    0.000000000000
-0.001248277979   -117731.931041105912    0.000000000000
 0.000000000000    0.000000000000   -93357.095696644479

-50150.247158679762    0.000626374221    0.000000000000
 0.000626374221   -117731.930893652403    0.000000000000
 0.000000000000    0.000000000000   -93357.095579623478

-50150.253524090222   -0.000468407349    0.000000000000
-0.000468407349   -117731.942177108518    0.000000000000
 0.000000000000    0.000000000000   -93357.105106717063

-50150.247205642350   -0.001821325099    0.000000000000
-0.001821325099   -117731.930976899210    0.000000000000
 0.000000000000    0.000000000000   -93357.095681230319

-50150.246976665258   -0.000701459195    0.000000000000
-0.000701459195   -117731.930571009972    0.000000000000
 0.000000000000    0.000000000000   -93357.095343594396

-50150.253045113408   -0.002252115722    0.000000000000
-0.002252115722   -117731.941328064306    0.000000000000
 0.000000000000    0.000000000000   -93357.104397556657

-50150.246897374556   -0.003630235270    0.000000000000
-0.003630235270   -117731.930430456880    0.000000000000
 0.000000000000    0.000000000000   -93357.095177685173

-50150.247300363553   -0.002111046129    0.000000000000
-0.002111046129   -117731.931144803471    0.000000000000
 0.000000000000    0.000000000000   -93357.095726500906

-50150.254375007484   -0.002399491217    0.000000000000
-0.002399491217   -117731.943685460923    0.000000000000
 0.000000000000    0.000000000000   -93357.106249800941

-50150.249202373583   -0.001621266243    0.000000000000
-0.001621266243   -117731.934516344772    0.000000000000
 0.000000000000    0.000000000000   -93357.098471184843

-50150.249355674721    0.001118305881    0.000000000000
 0.001118305881   -117731.934788089042    0.000000000000
 0.000000000000    0.000000000000   -93357.098584574240

-50150.254539810441   -0.001689504378    0.000000000000
-0.001689504378   -117731.943977592397    0.000000000000
 0.000000000000    0.000000000000   -93357.106153628323

-50150.249626877165   -0.001713165252    0.000000000000
-0.001713165252   -117731.935268826375    0.000000000000
 0.000000000000    0.000000000000   -93357.098653287205

-50150.250249877005    0.001691386058    0.000000000000
 0.001691386058   -117731.936373168734    0.000000000000
 0.000000000000    0.000000000000   -93357.099631771634

-50150.252323824141    0.002964035358    0.000000000000
 0.002964035358   -117731.940049490397    0.000000000000
 0.000000000000    0.000000000000   -93357.102965178987

-50150.256166828724   -0.000050261464    0.000000000000
-0.000050261464   -117731.946861680306    0.000000000000
 0.000000000000    0.000000000000   -93357.108995741655

-50150.253142286369   -0.005036447097    0.000000000000
-0.005036447097   -117731.941500312067    0.000000000000
 0.000000000000    0.000000000000   -93357.104170360559

-50150.248440945288    0.001802739879    0.000000000000
 0.001802739879   -117731.933166621311    0.000000000000
 0.000000000000    0.000000000000   -93357.097340170003

-50150.249942682873    0.005087177697    0.000000000000
 0.005087177697   -117731.935828631293    0.000000000000
 0.000000000000    0.000000000000   -93357.099784830207

-50150.243473429706    0.002889731572    0.000000000000
 0.002889731572   -117731.924361104713    0.000000000000
 0.000000000000    0.000000000000   -93357.090498136677

-50150.246663441270   -0.004747659659    0.000000000000
-0.004747659659   -117731.930015782214    0.000000000000
 0.000000000000    0.000000000000   -93357.095056652717

-50150.242712017774   -0.005751734880    0.000000000000
-0.005751734880   -117731.923011408944    0.000000000000
 0.000000000000    0.000000000000   -93357.089244012095

-50150.247917806359    0.001586246739    0.000000000000
 0.001586246739   -117731.932239295376    0.000000000000
 0.000000000000    0.000000000000   -93357.096753381149

-50150.248632097791    0.000901779005    0.000000000000
 0.000901779005   -117731.933505462774    0.000000000000
 0.000000000000    0.000000000000   -93357.097729383604

-50150.251408824886    0.004966567773    0.000000000000
 0.004966567773   -117731.938427545247    0.000000000000
 0.000000000000    0.000000000000   -93357.101960615444

-50150.249193267147    0.005125676591    0.000000000000
 0.005125676591   -117731.934500202333    0.000000000000
 0.000000000000    0.000000000000   -93357.098621879588

-50150.247777870012    0.001548860940    0.000000000000
 0.001548860940   -117731.931991241727    0.000000000000
 0.000000000000    0.000000000000   -93357.096560256032

-50150.248362865488   -0.002527876873    0.000000000000
-0.002527876873   -117731.933028216386    0.000000000000
 0.000000000000    0.000000000000   -93357.097404180837

-50150.248972586473   -0.003988519140    0.000000000000
-0.003988519140   -117731.934109019916    0.000000000000
 0.000000000000    0.000000000000   -93357.098335771938

-50150.249096785497   -0.004440612488    0.000000000000
-0.004440612488   -117731.934329177981    0.000000000000
 0.000000000000    0.000000000000   -93357.098626160339

-50150.248890779578   -0.004375707295    0.000000000000
-0.004375707295   -117731.933964008029    0.000000000000
 0.000000000000    0.000000000000   -93357.098390479761

-50150.248785979464   -0.003395630324    0.000000000000
-0.003395630324   -117731.933778237522    0.000000000000
 0.000000000000    0.000000000000   -93357.098232706339

-50150.248991024790   -0.001798093750    0.000000000000
-0.001798093750   -117731.934141705249    0.000000000000
 0.000000000000    0.000000000000   -93357.098508197290

-50150.249412138990   -0.000225826222    0.000000000000
-0.000225826222   -117731.934888180811    0.000000000000
 0.000000000000    0.000000000000   -93357.099099175743

-50150.249801885817    0.000737283127    0.000000000000
 0.000737283127   -117731.935579053679    0.000000000000
 0.000000000000    0.000000000000   -93357.099630916346

-50150.250050046889    0.000870453994    0.000000000000
 0.000870453994   -117731.936018948734    0.000000000000
 0.000000000000    0.000000000000   -93357.099935264356

-50150.250350536560    0.000628548949    0.000000000000
 0.000628548949   -117731.936551602514    0.000000000000
 0.000000000000    0.000000000000   -93357.100310389797

-50150.250486994824    0.000070959666    0.000000000000
 0.000070959666   -117731.936793490895    0.000000000000
 0.000000000000    0.000000000000   -93357.100440521172

-50150.250589300747   -0.000419895041    0.000000000000
-0.000419895041   -117731.936974840151    0.000000000000
 0.000000000000    0.000000000000   -93357.100530612544

-50150.250590370546   -0.000747736714    0.000000000000
-0.000747736714   -117731.936976736266    0.000000000000
 0.000000000000    0.000000000000   -93357.100485891599

-50150.250401701778   -0.000769539143    0.000000000000
-0.000769539143   -117731.936642298009    0.000000000000
 0.000000000000    0.000000000000   -93357.100160606860

-50150.250225082986   -0.000729294364    0.000000000000
-0.000729294364   -117731.936329219898    0.000000000000
 0.000000000000    0.000000000000   -93357.099897909095

-50150.250478966074   -0.000523909256    0.000000000000
-0.000523909256   -117731.936779258729    0.000000000000
 0.000000000000    0.000000000000   -93357.100378654024

-50150.250257225664   -0.000545505198    0.000000000000
-0.000545505198   -117731.936386197762    0.000000000000
 0.000000000000    0.000000000000   -93357.100180438982

-50150.249999394757    0.000327336982    0.000000000000
 0.000327336982   -117731.935929162049    0.000000000000
 0.000000000000    0.000000000000   -93357.099919072876

-50150.249705051072   -0.000795694962    0.000000000000
-0.000795694962   -117731.935407402780    0.000000000000
 0.000000000000    0.000000000000   -93357.099565876066

-50150.249276007744    0.002233414849    0.000000000000
 0.002233414849   -117731.934646871756    0.000000000000
 0.000000000000    0.000000000000   -93357.098952499306

-50150.250400714780   -0.000383449931    0.000000000000
-0.000383449931   -117731.936640550150    0.000000000000
 0.000000000000    0.000000000000   -93357.100595916214

-50150.245809682732   -0.001692152719    0.000000000000
-0.001692152719   -117731.928502392213    0.000000000000
 0.000000000000    0.000000000000   -93357.093677293989

-50150.250313862736   -0.001960610314    0.000000000000
-0.001960610314   -117731.936486591847    0.000000000000
 0.000000000000    0.000000000000   -93357.100335753639

-50150.248191699182   -0.007419572290    0.000000000000
-0.007419572290   -117731.932724800834    0.000000000000
 0.000000000000    0.000000000000   -93357.097158125907

-50150.243850479696    0.000246983936    0.000000000000
 0.000246983936   -117731.925029465463    0.000000000000
 0.000000000000    0.000000000000   -93357.090670740043

-50150.251391553189    0.004139573525    0.000000000000
 0.004139573525   -117731.938396927580    0.000000000000
 0.000000000000    0.000000000000   -93357.101932365447

-50150.251351792176   -0.002504955617    0.000000000000
-0.002504955617   -117731.938326446892    0.000000000000
 0.000000000000    0.000000000000   -93357.101868353173

-50150.244788806580   -0.000494458875    0.000000000000
-0.000494458875   -117731.926692763227    0.000000000000
 0.000000000000    0.000000000000   -93357.092068346232

-50150.251558161443    0.002035619120    0.000000000000
 0.002035619120   -117731.938692261698    0.000000000000
 0.000000000000    0.000000000000   -93357.102192084276

-50150.251511735492   -0.003765964234    0.000000000000
-0.003765964234   -117731.938609965640    0.000000000000
 0.000000000000    0.000000000000   -93357.102135345762

-50150.244670728876   -0.001450170051    0.000000000000
-0.001450170051   -117731.926483456278    0.000000000000
 0.000000000000    0.000000000000   -93357.091921973304

-50150.251271544272    0.000810612052    0.000000000000
 0.000810612052   -117731.938184198429    0.000000000000
 0.000000000000    0.000000000000   -93357.101776665426

-50150.251358820984   -0.004939033370    0.000000000000
-0.004939033370   -117731.938338905777    0.000000000000
 0.000000000000    0.000000000000   -93357.101881525887

-50150.244937970841   -0.002038263409    0.000000000000
-0.002038263409   -117731.926957174466    0.000000000000
 0.000000000000    0.000000000000   -93357.092244730171

-50150.252241883674    0.001457296620    0.000000000000
 0.001457296620   -117731.939904241037    0.000000000000
 0.000000000000    0.000000000000   -93357.103098856722

-50150.253206978145   -0.003036696347    0.000000000000
-0.003036696347   -117731.941614986688    0.000000000000
 0.000000000000    0.000000000000   -93357.104477180343

-50150.247152277341    0.000219737530    0.000000000000
 0.000219737530   -117731.930882298504    0.000000000000
 0.000000000000    0.000000000000   -93357.095337347040

-50150.253021477358    0.003356663815    0.000000000000
 0.003356663815   -117731.941286163026    0.000000000000
 0.000000000000    0.000000000000   -93357.103966759372

-50150.253678669978   -0.001448064615    0.000000000000
-0.001448064615   -117731.942451115843    0.000000000000
 0.000000000000    0.000000000000   -93357.104773136729

-50150.249170978350    0.000030144080    0.000000000000
 0.000030144080   -117731.934460688732    0.000000000000
 0.000000000000    0.000000000000   -93357.098040861019

-50150.253740368484    0.001765587891    0.000000000000
 0.001765587891   -117731.942560485637    0.000000000000
 0.000000000000    0.000000000000   -93357.105216019263

-50150.248067116430   -0.001203200729    0.000000000000
-0.001203200729   -117731.932503965218    0.000000000000
 0.000000000000    0.000000000000   -93357.097015897583

-50150.250125467239   -0.005886539443    0.000000000000
-0.005886539443   -117731.936152638809    0.000000000000
 0.000000000000    0.000000000000   -93357.100232983095

-50150.254956552722    0.002053725275    0.000000000000
 0.002053725275   -117731.944716320431    0.000000000000
 0.000000000000    0.000000000000   -93357.107237614226

-50150.245000728290    0.000543722557    0.000000000000
 0.000543722557   -117731.927068420438    0.000000000000
 0.000000000000    0.000000000000   -93357.092217466983

-50150.249361344802   -0.004306770297    0.000000000000
-0.004306770297   -117731.934798140632    0.000000000000
 0.000000000000    0.000000000000   -93357.098998010857

-50150.251416988031    0.005876337228    0.000000000000
 0.005876337228   -117731.938442014594    0.000000000000
 0.000000000000    0.000000000000   -93357.102356029791

-50150.249580390766   -0.001086480655    0.000000000000
-0.001086480655   -117731.935186428163    0.000000000000
 0.000000000000    0.000000000000   -93357.099599193461

-50150.244909764486   -0.001843348755    0.000000000000
-0.001843348755   -117731.926907177054    0.000000000000
 0.000000000000    0.000000000000   -93357.092009327447

-50150.243123064822   -0.000534471322    0.000000000000
-0.000534471322   -117731.923740040365    0.000000000000
 0.000000000000    0.000000000000   -93357.089797510635

-50150.244497028718   -0.000152939383    0.000000000000
-0.000152939383   -117731.926175556611    0.000000000000
 0.000000000000    0.000000000000   -93357.091843400340

-50150.250797741392    0.002358821156    0.000000000000
 0.002358821156   -117731.937344325430    0.000000000000
 0.000000000000    0.000000000000   -93357.100750516314

-50150.251552406975    0.007628869685    0.000000000000
 0.007628869685   -117731.938682059525    0.000000000000
 0.000000000000    0.000000000000   -93357.102003276887

-50150.249463165092    0.005180679637    0.000000000000
 0.005180679637   -117731.934978629142    0.000000000000
 0.000000000000    0.000000000000   -93357.099096900012

-50150.247130884716    0.002187068719    0.000000000000
 0.002187068719   -117731.930844382470    0.000000000000
 0.000000000000    0.000000000000   -93357.095617779371

-50150.247019803341   -0.000116831501    0.000000000000
-0.000116831501   -117731.930647477624    0.000000000000
 0.000000000000    0.000000000000   -93357.095452198118

-50150.248134713576   -0.001683184546    0.000000000000
-0.001683184546   -117731.932623790111    0.000000000000
 0.000000000000    0.000000000000   -93357.097132476702

-50150.248615378528   -0.003125670079    0.000000000000
-0.003125670079   -117731.933475826634    0.000000000000
 0.000000000000    0.000000000000   -93357.097919711508

-50150.248711904773   -0.004151586507    0.000000000000
-0.004151586507   -117731.933646931080    0.000000000000
 0.000000000000    0.000000000000   -93357.098140195725

-50150.248879603620   -0.003907777734    0.000000000000
-0.003907777734   -117731.933944197663    0.000000000000
 0.000000000000    0.000000000000   -93357.098418607435

-50150.249179978215   -0.002589975543    0.000000000000
-0.002589975543   -117731.934476648035    0.000000000000
 0.000000000000    0.000000000000   -93357.098843285828

-50150.249589060782   -0.000996984899    0.000000000000
-0.000996984899   -117731.935201796150    0.000000000000
 0.000000000000    0.000000000000   -93357.099407066067

-50150.249960286601    0.000266823905    0.000000000000
 0.000266823905   -117731.935859838355    0.000000000000
 0.000000000000    0.000000000000   -93357.099907842814

-50150.250147806131    0.000903930723    0.000000000000
 0.000903930723   -117731.936192238994    0.000000000000
 0.000000000000    0.000000000000   -93357.100125162557

-50150.250291501208    0.000966265242    0.000000000000
 0.000966265242   -117731.936446955442    0.000000000000
 0.000000000000    0.000000000000   -93357.100265395973

-50150.250374828858    0.000549349351    0.000000000000
 0.000549349351   -117731.936594663362    0.000000000000
 0.000000000000    0.000000000000   -93357.100308644935

-50150.250410718538   -0.000124824966    0.000000000000
-0.000124824966   -117731.936658281818    0.000000000000
 0.000000000000    0.000000000000   -93357.100284196073

-50150.250517055611   -0.000687410562    0.000000000000
-0.000687410562   -117731.936846776749    0.000000000000
 0.000000000000    0.000000000000   -93357.100379928976

-50150.250600333471   -0.000884787227    0.000000000000
-0.000884787227   -117731.936994396528    0.000000000000
 0.000000000000    0.000000000000   -93357.100455337466

-50150.250795720654   -0.001022324833    0.000000000000
-0.001022324833   -117731.937340743621    0.000000000000
 0.000000000000    0.000000000000   -93357.100706488913

-50150.250509348305   -0.000530379313    0.000000000000
-0.000530379313   -117731.936833114334    0.000000000000
 0.000000000000    0.000000000000   -93357.100301810307

-50150.250316779449   -0.000462183173    0.000000000000
-0.000462183173   -117731.936491763452    0.000000000000
 0.000000000000    0.000000000000   -93357.100144374897

-50150.250153800414    0.000042277760    0.000000000000
 0.000042277760   -117731.936202864134    0.000000000000
 0.000000000000    0.000000000000   -93357.100031957438

-50150.250024971836   -0.000237027463    0.000000000000
-0.000237027463   -117731.935974500549    0.000000000000
 0.000000000000    0.000000000000   -93357.099962432170

-50150.249887032594    0.000372762181    0.000000000000
 0.000372762181   -117731.935729986988    0.000000000000
 0.000000000000    0.000000000000   -93357.099841139672

-50150.249287953076   -0.000195451532    0.000000000000
-0.000195451532   -117731.934668046597    0.000000000000
 0.000000000000    0.000000000000   -93357.098983133110

-50150.250981047750    0.000656329322    0.000000000000
 0.000656329322   -117731.937669260398    0.000000000000
 0.000000000000    0.000000000000   -93357.101492177593

-50150.242992414307    0.002395214175    0.000000000000
 0.002395214175   -117731.923508445529    0.000000000000
 0.000000000000    0.000000000000   -93357.089463833792

-50150.243596278866   -0.001972629588    0.000000000000
-0.001972629588   -117731.924578866921    0.000000000000
 0.000000000000    0.000000000000   -93357.090275205133

-50150.247127301118   -0.002209016471    0.000000000000
-0.002209016471   -117731.930838027707    0.000000000000
 0.000000000000    0.000000000000   -93357.095552308980

-50150.251865682774    0.000842651045    0.000000000000
 0.000842651045   -117731.939237381623    0.000000000000
 0.000000000000    0.000000000000   -93357.102635224001

-50150.248393151560    0.003207053619    0.000000000000
 0.003207053619   -117731.933081900075    0.000000000000
 0.000000000000    0.000000000000   -93357.097453414754

-50150.247723070555   -0.002810191726    0.000000000000
-0.002810191726   -117731.931894100620    0.000000000000
 0.000000000000    0.000000000000   -93357.096475766404

-50150.250413762202    0.000045454319    0.000000000000
 0.000045454319   -117731.936663677974    0.000000000000
 0.000000000000    0.000000000000   -93357.100526622220

-50150.247906175689    0.002616100039    0.000000000000
 0.002616100039   -117731.932218677306    0.000000000000
 0.000000000000    0.000000000000   -93357.096803275024

-50150.247923229588   -0.004176989037    0.000000000000
-0.004176989037   -117731.932248906494    0.000000000000
 0.000000000000    0.000000000000   -93357.096840363127

-50150.250540191068   -0.001688538585    0.000000000000
-0.001688538585   -117731.936887788324    0.000000000000
 0.000000000000    0.000000000000   -93357.100742165931

-50150.248104882310    0.000951841890    0.000000000000
 0.000951841890   -117731.932570908742    0.000000000000
 0.000000000000    0.000000000000   -93357.097068037954

-50150.248529940291   -0.005547876439    0.000000000000
-0.005547876439   -117731.933324373560    0.000000000000
 0.000000000000    0.000000000000   -93357.097649583287

-50150.251925011529   -0.002286780406    0.000000000000
-0.002286780406   -117731.939342548547    0.000000000000
 0.000000000000    0.000000000000   -93357.102671597648

-50150.250326094589    0.001655605787    0.000000000000
 0.001655605787   -117731.936508273560    0.000000000000
 0.000000000000    0.000000000000   -93357.100245922687

-50150.250882714172   -0.003466671411    0.000000000000
-0.003466671411   -117731.937494948623    0.000000000000
 0.000000000000    0.000000000000   -93357.101031111568

-50150.253345069868   -0.000289842631    0.000000000000
-0.000289842631   -117731.941859772225    0.000000000000
 0.000000000000    0.000000000000   -93357.104632875722

-50150.250963366212    0.002584126738    0.000000000000
 0.002584126738   -117731.937637913084    0.000000000000
 0.000000000000    0.000000000000   -93357.100975690351

-50150.250925160079   -0.002337642210    0.000000000000
-0.002337642210   -117731.937570188282    0.000000000000
 0.000000000000    0.000000000000   -93357.100845781373

-50150.252129619577    0.000101240898    0.000000000000
 0.000101240898   -117731.939705239667    0.000000000000
 0.000000000000    0.000000000000   -93357.102693075271

-50150.250652126066   -0.001653820607    0.000000000000
-0.001653820607   -117731.937086202583    0.000000000000
 0.000000000000    0.000000000000   -93357.100542285203

-50150.251122545698   -0.002131069161    0.000000000000
-0.002131069161   -117731.937920078475    0.000000000000
 0.000000000000    0.000000000000   -93357.101139311140

-50150.246782814982   -0.008546115439    0.000000000000
-0.008546115439   -117731.930227384495    0.000000000000
 0.000000000000    0.000000000000   -93357.095270493606

-50150.256136952004   -0.005514755635    0.000000000000
-0.005514755635   -117731.946808718509    0.000000000000
 0.000000000000    0.000000000000   -93357.108869735923

-50150.249345950360    0.001328986961    0.000000000000
 0.001328986961   -117731.934770851512    0.000000000000
 0.000000000000    0.000000000000   -93357.098630830995

-50150.248304304070    0.006850568276    0.000000000000
 0.006850568276   -117731.932924405555    0.000000000000
 0.000000000000    0.000000000000   -93357.096892099929

-50150.243495042960    0.004808321061    0.000000000000
 0.004808321061   -117731.924399414449    0.000000000000
 0.000000000000    0.000000000000   -93357.090242621372

-50150.247271244247   -0.006137536247    0.000000000000
-0.006137536247   -117731.931093186649    0.000000000000
 0.000000000000    0.000000000000   -93357.096183379952

-50150.248366460422    0.000279987540    0.000000000000
 0.000279987540   -117731.933034588903    0.000000000000
 0.000000000000    0.000000000000   -93357.097373461613

-50150.243862572475   -0.002694277451    0.000000000000
-0.002694277451   -117731.925050905207    0.000000000000
 0.000000000000    0.000000000000   -93357.090784060551

-50150.249914990382    0.002340994571    0.000000000000
 0.002340994571   -117731.935779541745    0.000000000000
 0.000000000000    0.000000000000   -93357.099240022289

-50150.249504303560    0.005677674361    0.000000000000
 0.005677674361   -117731.935051548935    0.000000000000
 0.000000000000    0.000000000000   -93357.098663325218

-50150.251001295728    0.000822854467    0.000000000000
 0.000822854467   -117731.937705150660    0.000000000000
 0.000000000000    0.000000000000   -93357.101119781117

-50150.248000226842    0.001644096098    0.000000000000
 0.001644096098   -117731.932385396532    0.000000000000
 0.000000000000    0.000000000000   -93357.096996231339

-50150.246105711223    0.001630435224    0.000000000000
 0.001630435224   -117731.929027139908    0.000000000000
 0.000000000000    0.000000000000   -93357.094229655238

-50150.245932631224    0.000470987169    0.000000000000
 0.000470987169   -117731.928720334778    0.000000000000
 0.000000000000    0.000000000000   -93357.093952027994

-50150.246835919417   -0.001992618683    0.000000000000
-0.001992618683   -117731.930321521912    0.000000000000
 0.000000000000    0.000000000000   -93357.095368849536

-50150.247662166963   -0.003659335414    0.000000000000
-0.003659335414   -117731.931786144967    0.000000000000
 0.000000000000    0.000000000000   -93357.096645493788

-50150.248409775922   -0.003883394917    0.000000000000
-0.003883394917   -117731.933111371836    0.000000000000
 0.000000000000    0.000000000000   -93357.097778878291

-50150.249292052482   -0.003255022276    0.000000000000
-0.003255022276   -117731.934675313387    0.000000000000
 0.000000000000    0.000000000000   -93357.099096418315

-50150.250038353784   -0.001967671149    0.000000000000
-0.001967671149   -117731.935998222325    0.000000000000
 0.000000000000    0.000000000000   -93357.100170321050

-50150.250417196599   -0.000448468940    0.000000000000
-0.000448468940   -117731.936669766670    0.000000000000
 0.000000000000    0.000000000000   -93357.100665180464

-50150.250476505535    0.000602501601    0.000000000000
 0.000602501601   -117731.936774898524    0.000000000000
 0.000000000000    0.000000000000   -93357.100679182098

-50150.250408161599    0.001011587834    0.000000000000
 0.001011587834   -117731.936653750308    0.000000000000
 0.000000000000    0.000000000000   -93357.100505152761

-50150.250282825960    0.000933175886    0.000000000000
 0.000933175886   -117731.936431577487    0.000000000000
 0.000000000000    0.000000000000   -93357.100243632682

-50150.250137461655    0.000433115428    0.000000000000
 0.000433115428   -117731.936173901428    0.000000000000
 0.000000000000    0.000000000000   -93357.099947864495

-50150.250156437753   -0.000077742868    0.000000000000
-0.000077742868   -117731.936207538500    0.000000000000
 0.000000000000    0.000000000000   -93357.099901088659

-50150.250262212605   -0.000478979805    0.000000000000
-0.000478979805   -117731.936395036842    0.000000000000
 0.000000000000    0.000000000000   -93357.099990614559

-50150.250460034164   -0.000737243425    0.000000000000
-0.000737243425   -117731.936745699029    0.000000000000
 0.000000000000    0.000000000000   -93357.100224212889

-50150.250576328355   -0.000684893012    0.000000000000
-0.000684893012   -117731.936951844255    0.000000000000
 0.000000000000    0.000000000000   -93357.100351572139

-50150.250719274860   -0.000523918382    0.000000000000
-0.000523918382   -117731.937205234164    0.000000000000
 0.000000000000    0.000000000000   -93357.100561220286

-50150.250419690390   -0.000520395074    0.000000000000
-0.000520395074   -117731.936674185185    0.000000000000
 0.000000000000    0.000000000000   -93357.100235135629

-50150.250257753476   -0.000299966313    0.000000000000
-0.000299966313   -117731.936387133115    0.000000000000
 0.000000000000    0.000000000000   -93357.100124866396

-50150.249966534728   -0.000198100577    0.000000000000
-0.000198100577   -117731.935870913439    0.000000000000
 0.000000000000    0.000000000000   -93357.099821988581

-50150.249977125495    0.000111894443    0.000000000000
 0.000111894443   -117731.935889687360    0.000000000000
 0.000000000000    0.000000000000   -93357.099943557841

-50150.249017891285    0.000085507906    0.000000000000
 0.000085507906   -117731.934189329593    0.000000000000
 0.000000000000    0.000000000000   -93357.098576961522

-50150.249951348676    0.000661651269    0.000000000000
 0.000661651269   -117731.935843995074    0.000000000000
 0.000000000000    0.000000000000   -93357.099978472179

-50150.249023444994    0.002317142605    0.000000000000
 0.002317142605   -117731.934199173644    0.000000000000
 0.000000000000    0.000000000000   -93357.098532972203

-50150.248022619031   -0.008818339502    0.000000000000
-0.008818339502   -117731.932425084611    0.000000000000
 0.000000000000    0.000000000000   -93357.096930897998

-50150.251929481004   -0.007250274437    0.000000000000
-0.007250274437   -117731.939350469445    0.000000000000
 0.000000000000    0.000000000000   -93357.102704967227

-50150.247613918909   -0.000451054626    0.000000000000
-0.000451054626   -117731.931700607936    0.000000000000
 0.000000000000    0.000000000000   -93357.096232000331

-50150.246618737234   -0.001308917584    0.000000000000
-0.001308917584   -117731.929936526081    0.000000000000
 0.000000000000    0.000000000000   -93357.094773260047

-50150.250197959685   -0.003989694573    0.000000000000
-0.003989694573   -117731.936281136237    0.000000000000
 0.000000000000    0.000000000000   -93357.100131523854

-50150.249621380972    0.007953110438    0.000000000000
 0.007953110438   -117731.935259078993    0.000000000000
 0.000000000000    0.000000000000   -93357.099295943175

-50150.246835450002   -0.000601504792    0.000000000000
-0.000601504792   -117731.930320669140    0.000000000000
 0.000000000000    0.000000000000   -93357.095171266294

-50150.249575233305   -0.007717095415    0.000000000000
-0.007717095415   -117731.935177277221    0.000000000000
 0.000000000000    0.000000000000   -93357.099280471957

-50150.249601880540    0.007008488700    0.000000000000
 0.007008488700   -117731.935224513116    0.000000000000
 0.000000000000    0.000000000000   -93357.099340662622

-50150.246986116035   -0.000588154306    0.000000000000
-0.000588154306   -117731.930587742070    0.000000000000
 0.000000000000    0.000000000000   -93357.095453023663

-50150.249835940864   -0.008308125735    0.000000000000
-0.008308125735   -117731.935639412666    0.000000000000
 0.000000000000    0.000000000000   -93357.099701488958

-50150.250104893857    0.006301077371    0.000000000000
 0.006301077371   -117731.936116165307    0.000000000000
 0.000000000000    0.000000000000   -93357.100083038400

-50150.247778550256   -0.000979148804    0.000000000000
-0.000979148804   -117731.931992426616    0.000000000000
 0.000000000000    0.000000000000   -93357.096573607254

-50150.251054578970   -0.007947130578    0.000000000000
-0.007947130578   -117731.937799594976    0.000000000000
 0.000000000000    0.000000000000   -93357.101404119705

-50150.251819982237    0.007331736208    0.000000000000
 0.007331736208   -117731.939156364562    0.000000000000
 0.000000000000    0.000000000000   -93357.102494530525

-50150.249768644950    0.000210821667    0.000000000000
 0.000210821667   -117731.935520108484    0.000000000000
 0.000000000000    0.000000000000   -93357.099386201910

-50150.252444063430   -0.006957670615    0.000000000000
-0.006957670615   -117731.940262622898    0.000000000000
 0.000000000000    0.000000000000   -93357.103325587435

-50150.252417801777    0.007629968752    0.000000000000
 0.007629968752   -117731.940216070623    0.000000000000
 0.000000000000    0.000000000000   -93357.103227899934

-50150.250205523262   -0.000029349794    0.000000000000
-0.000029349794   -117731.936294527462    0.000000000000
 0.000000000000    0.000000000000   -93357.099900954883

-50150.252926467627   -0.007332467961    0.000000000000
-0.007332467961   -117731.941117742346    0.000000000000
 0.000000000000    0.000000000000   -93357.104004786554

-50150.251086080403    0.008585833154    0.000000000000
 0.008585833154   -117731.937855431839    0.000000000000
 0.000000000000    0.000000000000   -93357.101211342830

-50150.251499701553   -0.001688270001    0.000000000000
-0.001688270001   -117731.938588614052    0.000000000000
 0.000000000000    0.000000000000   -93357.101695289879

-50150.252115830750   -0.004798699695    0.000000000000
-0.004798699695   -117731.939680790107    0.000000000000
 0.000000000000    0.000000000000   -93357.102908264322

-50150.259145727410    0.002924771008    0.000000000000
 0.002924771008   -117731.952142136608    0.000000000000
 0.000000000000    0.000000000000   -93357.113650100335

-50150.250118951692    0.008861296694    0.000000000000
 0.008861296694   -117731.936141080572    0.000000000000
 0.000000000000    0.000000000000   -93357.099478603399

-50150.251587874489   -0.005330703447    0.000000000000
-0.005330703447   -117731.938744933839    0.000000000000
 0.000000000000    0.000000000000   -93357.102765923511

-50150.247055098880    0.008705918481    0.000000000000
 0.008705918481   -117731.930710040149    0.000000000000
 0.000000000000    0.000000000000   -93357.095545969380

-50150.246413039655   -0.005504859912    0.000000000000
-0.005504859912   -117731.929571912275    0.000000000000
 0.000000000000    0.000000000000   -93357.094147721597

-50150.250623484433   -0.001255723953    0.000000000000
-0.001255723953   -117731.937035438459    0.000000000000
 0.000000000000    0.000000000000   -93357.101430252471

-50150.257388971106    0.002726867165    0.000000000000
 0.002726867165   -117731.949028071162    0.000000000000
 0.000000000000    0.000000000000   -93357.111041883501

-50150.243949339594    0.001737908559    0.000000000000
 0.001737908559   -117731.925204709813    0.000000000000
 0.000000000000    0.000000000000   -93357.090748737333

-50150.242390314284    0.002200688598    0.000000000000
 0.002200688598   -117731.922441149654    0.000000000000
 0.000000000000    0.000000000000   -93357.088570648310

-50150.245858578171   -0.009122550306    0.000000000000
-0.009122550306   -117731.928589064279    0.000000000000
 0.000000000000    0.000000000000   -93357.094029436950

-50150.248993414047   -0.001809334300    0.000000000000
-0.001809334300   -117731.934145940206    0.000000000000
 0.000000000000    0.000000000000   -93357.098461241665

-50150.250346757355   -0.001688325179    0.000000000000
-0.001688325179   -117731.936544901953    0.000000000000
 0.000000000000    0.000000000000   -93357.100094765963

-50150.251170455755    0.005899965111    0.000000000000
 0.005899965111   -117731.938005003962    0.000000000000
 0.000000000000    0.000000000000   -93357.100993480301

-50150.249761414379    0.006342137453    0.000000000000
 0.006342137453   -117731.935507310147    0.000000000000
 0.000000000000    0.000000000000   -93357.099276158508

-50150.248904194159    0.002350968961    0.000000000000
 0.002350968961   -117731.933987786237    0.000000000000
 0.000000000000    0.000000000000   -93357.098138600166

-50150.246275121710    0.000717729993    0.000000000000
 0.000717729993   -117731.929327440157    0.000000000000
 0.000000000000    0.000000000000   -93357.094423281786

-50150.245252219320    0.000902189932    0.000000000000
 0.000902189932   -117731.927514222829    0.000000000000
 0.000000000000    0.000000000000   -93357.092936700094

-50150.245746065753    0.000313095336    0.000000000000
 0.000313095336   -117731.928389625537    0.000000000000
 0.000000000000    0.000000000000   -93357.093778603419

-50150.246817438994   -0.001587479560    0.000000000000
-0.001587479560   -117731.930288763819    0.000000000000
 0.000000000000    0.000000000000   -93357.095469173873

-50150.247822716374   -0.003010884007    0.000000000000
-0.003010884007   -117731.932070738651    0.000000000000
 0.000000000000    0.000000000000   -93357.096960142648

-50150.248805328352   -0.003207965225    0.000000000000
-0.003207965225   -117731.933812536387    0.000000000000
 0.000000000000    0.000000000000   -93357.098391058709

-50150.249841301556   -0.002400769186    0.000000000000
-0.002400769186   -117731.935648923580    0.000000000000
 0.000000000000    0.000000000000   -93357.099900428046

-50150.250575538739   -0.001150275647    0.000000000000
-0.001150275647   -117731.936950447271    0.000000000000
 0.000000000000    0.000000000000   -93357.100943765865

-50150.250798974550    0.000014144585    0.000000000000
 0.000014144585   -117731.937346513907    0.000000000000
 0.000000000000    0.000000000000   -93357.101209811080

-50150.250692200090    0.000726846632    0.000000000000
 0.000726846632   -117731.937157242966    0.000000000000
 0.000000000000    0.000000000000   -93357.100974960049

-50150.250461303149    0.000896009952    0.000000000000
 0.000896009952   -117731.936747949949    0.000000000000
 0.000000000000    0.000000000000   -93357.100550500807

-50150.250171442647    0.000632369744    0.000000000000
 0.000632369744   -117731.936234136985    0.000000000000
 0.000000000000    0.000000000000   -93357.100036592426

-50150.250039292194    0.000213773628    0.000000000000
 0.000213773628   -117731.935999884066    0.000000000000
 0.000000000000    0.000000000000   -93357.099760534693

-50150.250101083540   -0.000189720922    0.000000000000
-0.000189720922   -117731.936109416303    0.000000000000
 0.000000000000    0.000000000000   -93357.099778180913

-50150.250277722502   -0.000476362934    0.000000000000
-0.000476362934   -117731.936422529805    0.000000000000
 0.000000000000    0.000000000000   -93357.099972859287

-50150.250467270802   -0.000724645918    0.000000000000
-0.000724645918   -117731.936758526659    0.000000000000
 0.000000000000    0.000000000000   -93357.100194254206

-50150.250666789958   -0.000500515208    0.000000000000
-0.000500515208   -117731.937112198153    0.000000000000
 0.000000000000    0.000000000000   -93357.100443565767

-50150.250734082932   -0.000483817358    0.000000000000
-0.000483817358   -117731.937231483025    0.000000000000
 0.000000000000    0.000000000000   -93357.100541550200

-50150.250653301657   -0.000099726680    0.000000000000
-0.000099726680   -117731.937088288716    0.000000000000
 0.000000000000    0.000000000000   -93357.100458479836

-50150.250372136747   -0.000200390315    0.000000000000
-0.000200390315   -117731.936589890654    0.000000000000
 0.000000000000    0.000000000000   -93357.100165302661

-50150.250109342218   -0.000039588675    0.000000000000
-0.000039588675   -117731.936124056345    0.000000000000
 0.000000000000    0.000000000000   -93357.099909143391

-50150.250060127320   -0.000000757614    0.000000000000
-0.000000757614   -117731.936036817599    0.000000000000
 0.000000000000    0.000000000000   -93357.099962929293

-50150.249832134927   -0.000127116815    0.000000000000
-0.000127116815   -117731.935632674154    0.000000000000
 0.000000000000    0.000000000000   -93357.099729384165

-50150.249638404115    0.000214376608    0.000000000000
 0.000214376608   -117731.935289263260    0.000000000000
 0.000000000000    0.000000000000   -93357.099505993465

-50150.249011344218   -0.001087130423    0.000000000000
-0.001087130423   -117731.934177724179    0.000000000000
 0.000000000000    0.000000000000   -93357.098582598977

-50150.249022817530    0.005217424046    0.000000000000
 0.005217424046   -117731.934198060422    0.000000000000
 0.000000000000    0.000000000000   -93357.098548294482

-50150.250400521531   -0.007128857253    0.000000000000
-0.007128857253   -117731.936640205124    0.000000000000
 0.000000000000    0.000000000000   -93357.100495655352

-50150.262235849383   -0.014775809055    0.000000000000
-0.014775809055   -117731.957619738445    0.000000000000
 0.000000000000    0.000000000000   -93357.118035039355

-50150.222294681298    0.003760264403    0.000000000000
 0.003760264403   -117731.886819220454    0.000000000000
 0.000000000000    0.000000000000   -93357.058389033540

-50150.263571975338    0.011741036043    0.000000000000
 0.011741036043   -117731.959988183167    0.000000000000
 0.000000000000    0.000000000000   -93357.120106961651

-50150.262213755661   -0.013788228147    0.000000000000
-0.013788228147   -117731.957580572256    0.000000000000
 0.000000000000    0.000000000000   -93357.118114650817

-50150.220881341258   -0.000048762029    0.000000000000
-0.000048762029   -117731.884313905815    0.000000000000
 0.000000000000    0.000000000000   -93357.056399542533

-50150.262179658152    0.012997583504    0.000000000000
 0.012997583504   -117731.957520130629    0.000000000000
 0.000000000000    0.000000000000   -93357.118147281202

-50150.262107347735   -0.013977528662    0.000000000000
-0.013977528662   -117731.957391951641    0.000000000000
 0.000000000000    0.000000000000   -93357.118063807589

-50150.220900668704   -0.000983863370    0.000000000000
-0.000983863370   -117731.884348166626    0.000000000000
 0.000000000000    0.000000000000   -93357.056495642697

-50150.262585227014    0.012022189740    0.000000000000
 0.012022189740   -117731.958239050990    0.000000000000
 0.000000000000    0.000000000000   -93357.118758399622

-50150.263149315229   -0.015054013473    0.000000000000
-0.015054013473   -117731.959238962489    0.000000000000
 0.000000000000    0.000000000000   -93357.119559462095

-50150.222550475395   -0.001696943371    0.000000000000
-0.001696943371   -117731.887272646971    0.000000000000
 0.000000000000    0.000000000000   -93357.058847562977

-50150.264670876379    0.012052995798    0.000000000000
 0.012052995798   -117731.961936115622    0.000000000000
 0.000000000000    0.000000000000   -93357.121742746051

-50150.265253390811   -0.014152840744    0.000000000000
-0.014152840744   -117731.962968689957    0.000000000000
 0.000000000000    0.000000000000   -93357.122582730153

-50150.224104883411   -0.000412655275    0.000000000000
-0.000412655275   -117731.890028021749    0.000000000000
 0.000000000000    0.000000000000   -93357.061080008862

-50150.265454545137    0.012983401554    0.000000000000
 0.012983401554   -117731.963325261488    0.000000000000
 0.000000000000    0.000000000000   -93357.122851535649

-50150.265572374417   -0.013128280740    0.000000000000
-0.013128280740   -117731.963534127091    0.000000000000
 0.000000000000    0.000000000000   -93357.123029188166

-50150.224523567304    0.000320778374    0.000000000000
 0.000320778374   -117731.890770189115    0.000000000000
 0.000000000000    0.000000000000   -93357.061732075235

-50150.264465400134    0.013096339851    0.000000000000
 0.013096339851   -117731.961571882086    0.000000000000
 0.000000000000    0.000000000000   -93357.121421479198

-50150.264979716390   -0.014365421795    0.000000000000
-0.014365421795   -117731.962483569427    0.000000000000
 0.000000000000    0.000000000000   -93357.122099379281

-50150.225276607467   -0.002898684585    0.000000000000
-0.002898684585   -117731.892105041858    0.000000000000
 0.000000000000    0.000000000000   -93357.062617714357

-50150.264640061112    0.006662748599    0.000000000000
 0.006662748599   -117731.961881490162    0.000000000000
 0.000000000000    0.000000000000   -93357.121057773562

-50150.253148104588   -0.001802679425    0.000000000000
-0.001802679425   -117731.941510628443    0.000000000000
 0.000000000000    0.000000000000   -93357.104706818311

-50150.251722900735   -0.006365130509    0.000000000000
-0.006365130509   -117731.938984282024    0.000000000000
 0.000000000000    0.000000000000   -93357.102673046873

-50150.250812274069   -0.001768559156    0.000000000000
-0.001768559156   -117731.937370088766    0.000000000000
 0.000000000000    0.000000000000   -93357.101243755329

-50150.248379121462    0.001069175712    0.000000000000
 0.001069175712   -117731.933057029411    0.000000000000
 0.000000000000    0.000000000000   -93357.096936367248

-50150.243286624362    0.010227585178    0.000000000000
 0.010227585178   -117731.924029963207    0.000000000000
 0.000000000000    0.000000000000   -93357.089674545816

-50150.249738091858   -0.003564805985    0.000000000000
-0.003564805985   -117731.935465970600    0.000000000000
 0.000000000000    0.000000000000   -93357.099608441145

-50150.247227857515   -0.004747840430    0.000000000000
-0.004747840430   -117731.931016277827    0.000000000000
 0.000000000000    0.000000000000   -93357.095796353620

-50150.247998834791    0.001186499890    0.000000000000
 0.001186499890   -117731.932382927887    0.000000000000
 0.000000000000    0.000000000000   -93357.096890132758

-50150.244770479781   -0.000466911326    0.000000000000
-0.000466911326   -117731.926660280209    0.000000000000
 0.000000000000    0.000000000000   -93357.091982937694

-50150.253654134242    0.000904242846    0.000000000000
 0.000904242846   -117731.942407625960    0.000000000000
 0.000000000000    0.000000000000   -93357.105060985967

-50150.251368449652    0.000426319715    0.000000000000
 0.000426319715   -117731.938355975581    0.000000000000
 0.000000000000    0.000000000000   -93357.101776365642

-50150.246891085582    0.003594967833    0.000000000000
 0.003594967833   -117731.930419308454    0.000000000000
 0.000000000000    0.000000000000   -93357.095093959055

-50150.246073626899   -0.000509222058    0.000000000000
-0.000509222058   -117731.928970265231    0.000000000000
 0.000000000000    0.000000000000   -93357.093869660850

-50150.246095977389   -0.001546067962    0.000000000000
-0.001546067962   -117731.929009884800    0.000000000000
 0.000000000000    0.000000000000   -93357.094063926954

-50150.246001647829   -0.000009782200    0.000000000000
-0.000009782200   -117731.928842675465    0.000000000000
 0.000000000000    0.000000000000   -93357.094153556172

-50150.245471563896    0.000238881309    0.000000000000
 0.000238881309   -117731.927903038566    0.000000000000
 0.000000000000    0.000000000000   -93357.093505480821

-50150.245696605009   -0.000790011912    0.000000000000
-0.000790011912   -117731.928301951208    0.000000000000
 0.000000000000    0.000000000000   -93357.093886713541

-50150.247098696476   -0.001802151291    0.000000000000
-0.001802151291   -117731.930787326768    0.000000000000
 0.000000000000    0.000000000000   -93357.095947675378

-50150.248895791185   -0.001833582614    0.000000000000
-0.001833582614   -117731.933972893137    0.000000000000
 0.000000000000    0.000000000000   -93357.098571748691

-50150.250340430415   -0.001232529225    0.000000000000
-0.001232529225   -117731.936533689819    0.000000000000
 0.000000000000    0.000000000000   -93357.100669473817

-50150.251118497108   -0.000511679735    0.000000000000
-0.000511679735   -117731.937912906404    0.000000000000
 0.000000000000    0.000000000000   -93357.101764861669

-50150.251260357007    0.000118518563    0.000000000000
 0.000118518563   -117731.938164369814    0.000000000000
 0.000000000000    0.000000000000   -93357.101896219538

-50150.250970120054    0.000528199705    0.000000000000
 0.000528199705   -117731.937649889471    0.000000000000
 0.000000000000    0.000000000000   -93357.101377978848

-50150.250494287859    0.000569179834    0.000000000000
 0.000569179834   -117731.936806419253    0.000000000000
 0.000000000000    0.000000000000   -93357.100587637193

-50150.250089669324    0.000376406911    0.000000000000
 0.000376406911   -117731.936089183917    0.000000000000
 0.000000000000    0.000000000000   -93357.099909869576

-50150.249891884552    0.000139936389    0.000000000000
 0.000139936389   -117731.935738586282    0.000000000000
 0.000000000000    0.000000000000   -93357.099543037999

-50150.249900748269   -0.000113801541    0.000000000000
-0.000113801541   -117731.935754297941    0.000000000000
 0.000000000000    0.000000000000   -93357.099481805126

-50150.250104500839   -0.000351442530    0.000000000000
-0.000351442530   -117731.936115473538    0.000000000000
 0.000000000000    0.000000000000   -93357.099710401220

-50150.250470249855   -0.000390908710    0.000000000000
-0.000390908710   -117731.936763807345    0.000000000000
 0.000000000000    0.000000000000   -93357.100184873721

-50150.250716836832   -0.000448683482    0.000000000000
-0.000448683482   -117731.937200912158    0.000000000000
 0.000000000000    0.000000000000   -93357.100494839062

-50150.250709309927   -0.000054137599    0.000000000000
-0.000054137599   -117731.937187569885    0.000000000000
 0.000000000000    0.000000000000   -93357.100491934965

-50150.250555592531   -0.000175134378    0.000000000000
-0.000175134378   -117731.936915087805    0.000000000000
 0.000000000000    0.000000000000   -93357.100375928232

-50150.250207804711   -0.000215684149    0.000000000000
-0.000215684149   -117731.936298592685    0.000000000000
 0.000000000000    0.000000000000   -93357.099989641618

-50150.250103590311    0.000080030680    0.000000000000
 0.000080030680   -117731.936113860706    0.000000000000
 0.000000000000    0.000000000000   -93357.099967862057

-50150.249927081641   -0.000415687307    0.000000000000
-0.000415687307   -117731.935800978390    0.000000000000
 0.000000000000    0.000000000000   -93357.099822839882

-50150.249540090983    0.000847003067    0.000000000000
 0.000847003067   -117731.935114991240    0.000000000000
 0.000000000000    0.000000000000   -93357.099334471568

-50150.249743898145   -0.000625158044    0.000000000000
-0.000625158044   -117731.935476264131    0.000000000000
 0.000000000000    0.000000000000   -93357.099681402731

-50150.247574682653    0.000548087112    0.000000000000
 0.000548087112   -117731.931631068524    0.000000000000
 0.000000000000    0.000000000000   -93357.096416422952

-50150.253735338672    0.000291921011    0.000000000000
 0.000291921011   -117731.942551572080    0.000000000000
 0.000000000000    0.000000000000   -93357.105547735031

-50150.245114529826   -0.005343059907    0.000000000000
-0.005343059907   -117731.927270149376    0.000000000000
 0.000000000000    0.000000000000   -93357.092524869382

-50150.233063611486    0.016231856723    0.000000000000
 0.016231856723   -117731.905908402056    0.000000000000
 0.000000000000    0.000000000000   -93357.074404167623

-50150.260744731735   -0.059445301543    0.000000000000
-0.059445301543   -117731.954976386914    0.000000000000
 0.000000000000    0.000000000000   -93357.115796842365

-50150.256829559206    0.057167064932    0.000000000000
 0.057167064932   -117731.948036225920    0.000000000000
 0.000000000000    0.000000000000   -93357.109998468470

-50150.230790729955    0.000943275793    0.000000000000
 0.000943275793   -117731.901879195473    0.000000000000
 0.000000000000    0.000000000000   -93357.071156784368

-50150.257245687506   -0.054130440282    0.000000000000
-0.054130440282   -117731.948773880082    0.000000000000
 0.000000000000    0.000000000000   -93357.110733106718

-50150.257149895828    0.054463900802    0.000000000000
 0.054463900802   -117731.948604077450    0.000000000000
 0.000000000000    0.000000000000   -93357.110630549156

-50150.230641957387    0.000148360013    0.000000000000
 0.000148360013   -117731.901615474984    0.000000000000
 0.000000000000    0.000000000000   -93357.071050773244

-50150.257523803077   -0.054140717394    0.000000000000
-0.054140717394   -117731.949266871670    0.000000000000
 0.000000000000    0.000000000000   -93357.111213446202

-50150.257954866334    0.054605192024    0.000000000000
 0.054605192024   -117731.950030981126    0.000000000000
 0.000000000000    0.000000000000   -93357.111841193575

-50150.231924527237    0.000319359305    0.000000000000
 0.000319359305   -117731.903888987988    0.000000000000
 0.000000000000    0.000000000000   -93357.072923512504

-50150.259309841604   -0.053879222799    0.000000000000
-0.053879222799   -117731.952432840393    0.000000000000
 0.000000000000    0.000000000000   -93357.113801927509

-50150.259955758840    0.055021532344    0.000000000000
 0.055021532344   -117731.953577802225    0.000000000000
 0.000000000000    0.000000000000   -93357.114728859742

-50150.233650922884    0.000746228590    0.000000000000
 0.000746228590   -117731.906949226337    0.000000000000
 0.000000000000    0.000000000000   -93357.075389941427

-50150.260325415482   -0.053722721641    0.000000000000
-0.053722721641   -117731.954233071039    0.000000000000
 0.000000000000    0.000000000000   -93357.115209655196

-50150.260237126306    0.054777425611    0.000000000000
 0.054777425611   -117731.954076563939    0.000000000000
 0.000000000000    0.000000000000   -93357.115080066462

-50150.233626208967    0.000230090669    0.000000000000
 0.000230090669   -117731.906905411655    0.000000000000
 0.000000000000    0.000000000000   -93357.075368677324

-50150.260044011084   -0.054351315799    0.000000000000
-0.054351315799   -117731.953734249139    0.000000000000
 0.000000000000    0.000000000000   -93357.114909629148

-50150.260175904055    0.053336450009    0.000000000000
 0.053336450009   -117731.953968048212    0.000000000000
 0.000000000000    0.000000000000   -93357.115100690266

-50150.234071194762   -0.000466131213    0.000000000000
-0.000466131213   -117731.907694216032    0.000000000000
 0.000000000000    0.000000000000   -93357.075977775254

-50150.259381011769   -0.051859663591    0.000000000000
-0.051859663591   -117731.952559018755    0.000000000000
 0.000000000000    0.000000000000   -93357.113597331758

-50150.262136474586    0.054750687443    0.000000000000
 0.054750687443   -117731.957443385225    0.000000000000
 0.000000000000    0.000000000000   -93357.117392324901

-50150.235151797053    0.003943538909    0.000000000000
 0.003943538909   -117731.909609656243    0.000000000000
 0.000000000000    0.000000000000   -93357.076907124458

-50150.252258488239    0.012370517733    0.000000000000
 0.012370517733   -117731.939933663030    0.000000000000
 0.000000000000    0.000000000000   -93357.102627298416

-50150.255060679017    0.000080057730    0.000000000000
 0.000080057730   -117731.944900896022    0.000000000000
 0.000000000000    0.000000000000   -93357.107434906153

-50150.245137823556    0.000585549605    0.000000000000
 0.000585549605   -117731.927311445383    0.000000000000
 0.000000000000    0.000000000000   -93357.093396066892

-50150.251513561867    0.005145640092    0.000000000000
 0.005145640092   -117731.938613201724    0.000000000000
 0.000000000000    0.000000000000   -93357.101689334959

-50150.245126350608   -0.004062197985    0.000000000000
-0.004062197985   -117731.927291102445    0.000000000000
 0.000000000000    0.000000000000   -93357.092521466257

-50150.255128567340   -0.007975103789    0.000000000000
-0.007975103789   -117731.945021237247    0.000000000000
 0.000000000000    0.000000000000   -93357.108106821863

-50150.250525990152    0.008996774737    0.000000000000
 0.008996774737   -117731.936862606846    0.000000000000
 0.000000000000    0.000000000000   -93357.100155021879

-50150.241476130221    0.002938650616    0.000000000000
 0.002938650616   -117731.920820648738    0.000000000000
 0.000000000000    0.000000000000   -93357.087596546131

-50150.248701129487   -0.003937103663    0.000000000000
-0.003937103663   -117731.933627829058    0.000000000000
 0.000000000000    0.000000000000   -93357.097999366641

-50150.245330010774   -0.002126127680    0.000000000000
-0.002126127680   -117731.927652118466    0.000000000000
 0.000000000000    0.000000000000   -93357.093447661362

-50150.251728737014    0.004582463883    0.000000000000
 0.004582463883   -117731.938994625685    0.000000000000
 0.000000000000    0.000000000000   -93357.101924527917

-50150.249742278640    0.001963911269    0.000000000000
 0.001963911269   -117731.935473393154    0.000000000000
 0.000000000000    0.000000000000   -93357.099678278799

-50150.248762595365    0.000516426721    0.000000000000
 0.000516426721   -117731.933736786072    0.000000000000
 0.000000000000    0.000000000000   -93357.098050982633

-50150.245843939083    0.000811607295    0.000000000000
 0.000811607295   -117731.928563116046    0.000000000000
 0.000000000000    0.000000000000   -93357.093575623177

-50150.245849689236    0.000243670618    0.000000000000
 0.000243670618   -117731.928573308600    0.000000000000
 0.000000000000    0.000000000000   -93357.093497357549

-50150.246259044143    0.001535261570    0.000000000000
 0.001535261570   -117731.929298940493    0.000000000000
 0.000000000000    0.000000000000   -93357.094354582005

-50150.245444321670    0.000883292281    0.000000000000
 0.000883292281   -117731.927854748355    0.000000000000
 0.000000000000    0.000000000000   -93357.093451867753

-50150.245153105134   -0.000440149908    0.000000000000
-0.000440149908   -117731.927338532492    0.000000000000
 0.000000000000    0.000000000000   -93357.093113277442

-50150.246176571571   -0.001023411536    0.000000000000
-0.001023411536   -117731.929152749799    0.000000000000
 0.000000000000    0.000000000000   -93357.094625622252

-50150.248001079250   -0.000914905114    0.000000000000
-0.000914905114   -117731.932386908913    0.000000000000
 0.000000000000    0.000000000000   -93357.097286643329

-50150.249710918346   -0.000679896952    0.000000000000
-0.000679896952   -117731.935417804110    0.000000000000
 0.000000000000    0.000000000000   -93357.099758041906

-50150.250869441094   -0.000479721452    0.000000000000
-0.000479721452   -117731.937471424812    0.000000000000
 0.000000000000    0.000000000000   -93357.101419612212

-50150.251382041606   -0.000175553885    0.000000000000
-0.000175553885   -117731.938380070584    0.000000000000
 0.000000000000    0.000000000000   -93357.102120993106

-50150.251286357830    0.000119757942    0.000000000000
 0.000119757942   -117731.938210459237    0.000000000000
 0.000000000000    0.000000000000   -93357.101899332803

-50150.250795870816    0.000244563159    0.000000000000
 0.000244563159   -117731.937341011595    0.000000000000
 0.000000000000    0.000000000000   -93357.101079992281

-50150.250273609287    0.000179993424    0.000000000000
 0.000179993424   -117731.936415239819    0.000000000000
 0.000000000000    0.000000000000   -93357.100219729706

-50150.249943636110    0.000084172293    0.000000000000
 0.000084172293   -117731.935830322298    0.000000000000
 0.000000000000    0.000000000000   -93357.099654884223

-50150.249833673777    0.000008042577    0.000000000000
 0.000008042577   -117731.935635400529    0.000000000000
 0.000000000000    0.000000000000   -93357.099418686892

-50150.249924929201   -0.000015230295    0.000000000000
-0.000015230295   -117731.935797161364    0.000000000000
 0.000000000000    0.000000000000   -93357.099478372751

-50150.250210784907   -0.000133537249    0.000000000000
-0.000133537249   -117731.936303874652    0.000000000000
 0.000000000000    0.000000000000   -93357.099828365783

-50150.250592243945   -0.000228603586    0.000000000000
-0.000228603586   -117731.936980056373    0.000000000000
 0.000000000000    0.000000000000   -93357.100330606627

-50150.251012987566   -0.000077199353    0.000000000000
-0.000077199353   -117731.937725874857    0.000000000000
 0.000000000000    0.000000000000   -93357.100909294255


TENSORS   eStrain   float
 0.167586917976   -0.000000012379    0.000000000000
-0.000000012379   -0.100000379589    0.000000000000
 0.000000000000    0.000000000000    0.000000000000

 0.167586858504   -0.000000009288    0.000000000000
-0.000000009288   -0.100000345991    0.000000000000
 0.000000000000    0.000000000000    0.000000000000

 0.167586793284   -0.000000009769    0.000000000000
-0.000000009769   -0.100000309175    0.000000000000
 0.000000000000    0.000000000000    0.000000000000

 0.167586733797   -0.000000016183    0.000000000000
-0.000000016183   -0.100000275455    0.000000000000
 0.000000000000    0.000000000000    0.000000000000

 0.167586193528    0.000000032649    0.000000000000
 0.000000032649   -0.099999969275    0.000000000000
 0.000000000000    0.000000000000    0.000000000000

 0.167586373331   -0.000000002470    0.000000000000
-0.000000002470   -0.100000072389    0.000000000000
 0.000000000000    0.000000000000    0.000000000000

 0.167587164051   -0.000000087412    0.000000000000
-0.000000087412   -0.100000518179    0.000000000000
 0.000000000000    0.000000000000    0.000000000000

 0.167586661433   -0.000000201678    0.000000000000
-0.000000201678   -0.100000237759    0.000000000000
 0.000000000000    0.000000000000    0.000000000000

 0.167584694612   -0.000000006900    0.000000000000
-0.000000006900   -0.099999124217    0.000000000000
 0.000000000000    0.000000000000    0.000000000000

 0.167584686982    0.000000012826    0.000000000000
 0.000000012826   -0.099999120702    0.000000000000
 0.000000000000    0.000000000000    0.000000000000

 0.167587252183   -0.000000000946    0.000000000000
-0.000000000946   -0.100000568137    0.000000000000
 0.000000000000    0.000000000000    0.000000000000

 0.167587246133   -0.000000002380    0.000000000000
-0.000000002380   -0.100000564756    0.000000000000
 0.000000000000    0.000000000000    0.000000000000

 0.167584663667   -0.000000016464    0.000000000000
-0.000000016464   -0.099999108031    0.000000000000
 0.000000000000    0.000000000000    0.000000000000

 0.167584610824    0.000000024358    0.000000000000
 0.000000024358   -0.099999078323    0.000000000000
 0.000000000000    0.000000000000    0.000000000000

 0.167584622267   -0.000000013557    0.000000000000
-0.000000013557   -0.099999084744    0.000000000000
 0.000000000000    0.000000000000    0.000000000000

 0.167586663534    0.000000059093    0.000000000000
 0.000000059093   -0.100000234708    0.000000000000
 0.000000000000    0.000000000000    0.000000000000

 0.167586252920   -0.000000174030    0.000000000000
-0.000000174030   -0.100000003605    0.000000000000
 0.000000000000    0.000000000000    0.000000000000

 0.167587067265   -0.000000351443    0.000000000000
-0.000000351443   -0.100000465464    0.000000000000
 0.000000000000    0.000000000000    0.000000000000

 0.167586113746    0.000000080583    0.000000000000
 0.000000080583   -0.099999924668    0.000000000000
 0.000000000000    0.000000000000    0.000000000000

 0.167585970238    0.000000042013    0.000000000000
 0.000000042013   -0.099999844487    0.000000000000
 0.000000000000    0.000000000000    0.000000000000

 0.167585887299    0.000000021111    0.000000000000
 0.000000021111   -0.099999797439    0.000000000000
 0.000000000000    0.000000000000    0.000000000000

 0.167587248942   -0.000000001212    0.000000000000
-0.000000001212   -0.100000566367    0.000000000000
 0.000000000000    0.000000000000    0.000000000000

 0.167587258319   -0.000000000812    0.000000000000
-0.000000000812   -0.100000571608    0.000000000000
 0.000000000000    0.000000000000    0.000000000000

 0.167587259874   -0.000000000479    0.000000000000
-0.000000000479   -0.100000572548    0.000000000000
 0.000000000000    0.000000000000    0.000000000000

 0.167586640852   -0.000000021106    0.000000000000
-0.000000021106   -0.100000222889    0.000000000000
 0.000000000000    0.000000000000    0.000000000000

 0.167586532705   -0.000000020491    0.000000000000
-0.000000020491   -0.100000161884    0.000000000000
 0.000000000000    0.000000000000    0.000000000000

 0.167586422423   -0.000000013603    0.000000000000
-0.000000013603   -0.100000099735    0.000000000000
 0.000000000000    0.000000000000    0.000000000000

 0.167586333912   -0.000000008483    0.000000000000
-0.000000008483   -0.100000049935    0.000000000000
 0.000000000000    0.000000000000    0.000000000000

 0.167586228416   -0.000000009481    0.000000000000
-0.000000009481   -0.099999990448    0.000000000000
 0.000000000000    0.000000000000    0.000000000000

 0.167586108125   -0.000000008672    0.000000000000
-0.000000008672   -0.099999922557    0.000000000000
 0.000000000000    0.000000000000    0.000000000000

 0.167586010541   -0.000000009303    0.000000000000
-0.000000009303   -0.099999867578    0.000000000000
 0.000000000000    0.000000000000    0.000000000000

 0.167585916370   -0.000000015731    0.000000000000
-0.000000015731   -0.099999814410    0.000000000000
 0.000000000000    0.000000000000    0.000000000000

 0.167585831832   -0.000000019764    0.000000000000
-0.000000019764   -0.099999766525    0.000000000000
 0.000000000000    0.000000000000    0.000000000000

 0.167585785810   -0.000000023725    0.000000000000
-0.000000023725   -0.099999740425    0.000000000000
 0.000000000000    0.000000000000    0.000000000000

 0.167585746830   -0.000000026719    0.000000000000
-0.000000026719   -0.099999718300    0.000000000000
 0.000000000000    0.000000000000    0.000000000000

 0.167585702835   -0.000000026033    0.000000000000
-0.000000026033   -0.099999693756    0.000000000000
 0.000000000000    0.000000000000    0.000000000000

 0.167585758954   -0.000000027006    0.000000000000
-0.000000027006   -0.099999725525    0.000000000000
 0.000000000000    0.000000000000    0.000000000000

 0.167585840002   -0.000000018693    0.000000000000
-0.000000018693   -0.099999771368    0.000000000000
 0.000000000000    0.000000000000    0.000000000000

 0.167585937040   -0.000000010516    0.000000000000
-0.000000010516   -0.099999826163    0.000000000000
 0.000000000000    0.000000000000    0.000000000000

 0.167586043334   -0.000000009149    0.000000000000
-0.000000009149   -0.099999886050    0.000000000000
 0.000000000000    0.000000000000    0.000000000000

 0.167586155753   -0.000000006670    0.000000000000
-0.000000006670   -0.099999949356    0.000000000000
 0.000000000000    0.000000000000    0.000000000000

 0.167586271973   -0.000000006475    0.000000000000
-0.000000006475   -0.100000014916    0.000000000000
 0.000000000000    0.000000000000    0.000000000000

 0.167586382123   -0.000000013639    0.000000000000
-0.000000013639   -0.100000077019    0.000000000000
 0.000000000000    0.000000000000    0.000000000000

 0.167586488883   -0.000000021860    0.000000000000
-0.000000021860   -0.100000137157    0.000000000000
 0.000000000000    0.000000000000    0.000000000000

 0.167586604236   -0.000000026290    0.000000000000
-0.000000026290   -0.100000202263    0.000000000000
 0.000000000000    0.000000000000    0.000000000000

 0.167586712550   -0.000000021689    0.000000000000
-0.000000021689   -0.100000263498    0.000000000000
 0.000000000000    0.000000000000    0.000000000000

 0.167586646503   -0.000000019567    0.000000000000
-0.000000019567   -0.100000226107    0.000000000000
 0.000000000000    0.000000000000    0.000000000000

 0.167586548439   -0.000000027131    0.000000000000
-0.000000027131   -0.100000170774    0.000000000000
 0.000000000000    0.000000000000    0.000000000000

 0.167586439382   -0.000000021843    0.000000000000
-0.000000021843   -0.100000109319    0.000000000000
 0.000000000000    0.000000000000    0.000000000000

 0.167586348757   -0.000000004206    0.000000000000
-0.000000004206   -0.100000058283    0.000000000000
 0.000000000000    0.000000000000    0.000000000000

 0.167586264161   -0.000000010342    0.000000000000
-0.000000010342   -0.100000010636    0.000000000000
 0.000000000000    0.000000000000    0.000000000000

 0.167586143863   -0.000000018811    0.000000000000
-0.000000018811   -0.099999942781    0.000000000000
 0.000000000000    0.000000000000    0.000000000000

 0.167586037331   -0.000000009446    0.000000000000
-0.000000009446   -0.099999882696    0.000000000000
 0.000000000000    0.000000000000    0.000000000000

 0.167585954928   -0.000000016863    0.000000000000
-0.000000016863   -0.099999836188    0.000000000000
 0.000000000000    0.000000000000    0.000000000000

 0.167585864469   -0.000000025441    0.000000000000
-0.000000025441   -0.099999784994    0.000000000000
 0.000000000000    0.000000000000    0.000000000000

 0.167585811639   -0.000000018858    0.000000000000
-0.000000018858   -0.099999755001    0.000000000000
 0.000000000000    0.000000000000    0.000000000000

 0.167585791092   -0.000000030095    0.000000000000
-0.000000030095   -0.099999743354    0.000000000000
 0.000000000000    0.000000000000    0.000000000000

 0.167585752515   -0.000000035151    0.000000000000
-0.000000035151   -0.099999721622    0.000000000000
 0.000000000000    0.000000000000    0.000000000000

 0.167585719187   -0.000000027169    0.000000000000
-0.000000027169   -0.099999702765    0.000000000000
 0.000000000000    0.000000000000    0.000000000000

 0.167585682218   -0.000000016846    0.000000000000
-0.000000016846   -0.099999681996    0.000000000000
 0.000000000000    0.000000000000    0.000000000000

 0.167585670848   -0.000000026251    0.000000000000
-0.000000026251   -0.099999675660    0.000000000000
 0.000000000000    0.000000000000    0.000000000000

 0.167585710461   -0.000000022945    0.000000000000
-0.000000022945   -0.099999698161    0.000000000000
 0.000000000000    0.000000000000    0.000000000000

 0.167585795775   -0.000000016465    0.000000000000
-0.000000016465   -0.099999746455    0.000000000000
 0.000000000000    0.000000000000    0.000000000000

 0.167585898100   -0.000000008682    0.000000000000
-0.000000008682   -0.099999804217    0.000000000000
 0.000000000000    0.000000000000    0.000000000000

 0.167586003939   -0.000000004918    0.000000000000
-0.000000004918   -0.099999863840    0.000000000000
 0.000000000000    0.000000000000    0.000000000000

 0.167586121747   -0.000000003315    0.000000000000
-0.000000003315   -0.099999930175    0.000000000000
 0.000000000000    0.000000000000    0.000000000000

 0.167586238763   -0.000000003642    0.000000000000
-0.000000003642   -0.099999996132    0.000000000000
 0.000000000000    0.000000000000    0.000000000000

 0.167586350050   -0.000000008814    0.000000000000
-0.000000008814   -0.100000058901    0.000000000000
 0.000000000000    0.000000000000    0.000000000000

 0.167586466629   -0.000000015822    0.000000000000
-0.000000015822   -0.100000124602    0.000000000000
 0.000000000000    0.000000000000    0.000000000000

 0.167586583558   -0.000000020209    0.000000000000
-0.000000020209   -0.100000190549    0.000000000000
 0.000000000000    0.000000000000    0.000000000000

 0.167586691392   -0.000000019944    0.000000000000
-0.000000019944   -0.100000251487    0.000000000000
 0.000000000000    0.000000000000    0.000000000000

 0.167586778454   -0.000000016705    0.000000000000
-0.000000016705   -0.100000300717    0.000000000000
 0.000000000000    0.000000000000    0.000000000000

 0.167586752855   -0.000000011624    0.000000000000
-0.000000011624   -0.100000286297    0.000000000000
 0.000000000000    0.000000000000    0.000000000000

 0.167586676072   -0.000000014647    0.000000000000
-0.000000014647   -0.100000242863    0.000000000000
 0.000000000000    0.000000000000    0.000000000000

 0.167586559569   -0.000000020260    0.000000000000
-0.000000020260   -0.100000176962    0.000000000000
 0.000000000000    0.000000000000    0.000000000000

 0.167586454409   -0.000000014551    0.000000000000
-0.000000014551   -0.100000117625    0.000000000000
 0.000000000000    0.000000000000    0.000000000000

 0.167586381600   -0.000000009889    0.000000000000
-0.000000009889   -0.100000076875    0.000000000000
 0.000000000000    0.000000000000    0.000000000000

 0.167586299896   -0.000000010658    0.000000000000
-0.000000010658   -0.100000030848    0.000000000000
 0.000000000000    0.000000000000    0.000000000000

 0.167586202472   -0.000000011081    0.000000000000
-0.000000011081   -0.099999975772    0.000000000000
 0.000000000000    0.000000000000    0.000000000000

 0.167586107587   -0.000000012711    0.000000000000
-0.000000012711   -0.099999922421    0.000000000000
 0.000000000000    0.000000000000    0.000000000000

 0.167586012498   -0.000000017800    0.000000000000
-0.000000017800   -0.099999868746    0.000000000000
 0.000000000000    0.000000000000    0.000000000000

 0.167585926628   -0.000000019612    0.000000000000
-0.000000019612   -0.099999820021    0.000000000000
 0.000000000000    0.000000000000    0.000000000000

 0.167585871300   -0.000000020795    0.000000000000
-0.000000020795   -0.099999788766    0.000000000000
 0.000000000000    0.000000000000    0.000000000000

 0.167585838639   -0.000000022956    0.000000000000
-0.000000022956   -0.099999770196    0.000000000000
 0.000000000000    0.000000000000    0.000000000000

 0.167585823580   -0.000000020989    0.000000000000
-0.000000020989   -0.099999761520    0.000000000000
 0.000000000000    0.000000000000    0.000000000000

 0.167585835857   -0.000000029116    0.000000000000
-0.000000029116   -0.099999768580    0.000000000000
 0.000000000000    0.000000000000    0.000000000000

 0.167585818268   -0.000000034064    0.000000000000
-0.000000034064   -0.099999759025    0.000000000000
 0.000000000000    0.000000000000    0.000000000000

 0.167585857041   -0.000000021486    0.000000000000
-0.000000021486   -0.099999780953    0.000000000000
 0.000000000000    0.000000000000    0.000000000000

 0.167585669328   -0.000000024484    0.000000000000
-0.000000024484   -0.099999674728    0.000000000000
 0.000000000000    0.000000000000    0.000000000000

 0.167585622220   -0.000000034681    0.000000000000
-0.000000034681   -0.099999648070    0.000000000000
 0.000000000000    0.000000000000    0.000000000000

 0.167585648924   -0.000000016448    0.000000000000
-0.000000016448   -0.099999663473    0.000000000000
 0.000000000000    0.000000000000    0.000000000000

 0.167585701070   -0.000000012531    0.000000000000
-0.000000012531   -0.099999693222    0.000000000000
 0.000000000000    0.000000000000    0.000000000000

 0.167585803257   -0.000000013042    0.000000000000
-0.000000013042   -0.099999750942    0.000000000000
 0.000000000000    0.000000000000    0.000000000000

 0.167585922017   -0.000000008622    0.000000000000
-0.000000008622   -0.099999817784    0.000000000000
 0.000000000000    0.000000000000    0.000000000000

 0.167586040299   -0.000000004516    0.000000000000
-0.000000004516   -0.099999884301    0.000000000000
 0.000000000000    0.000000000000    0.000000000000

 0.167586166811   -0.000000002975    0.000000000000
-0.000000002975   -0.099999955548    0.000000000000
 0.000000000000    0.000000000000    0.000000000000

 0.167586286622   -0.000000003766    0.000000000000
-0.000000003766   -0.100000023053    0.000000000000
 0.000000000000    0.000000000000    0.000000000000

 0.167586400578   -0.000000013197    0.000000000000
-0.000000013197   -0.100000087275    0.000000000000
 0.000000000000    0.000000000000    0.000000000000

 0.167586526058   -0.000000023182    0.000000000000
-0.000000023182   -0.100000158084    0.000000000000
 0.000000000000    0.000000000000    0.000000000000

 0.167586647801   -0.000000022303    0.000000000000
-0.000000022303   -0.100000226854    0.000000000000
 0.000000000000    0.000000000000    0.000000000000

 0.167586746802   -0.000000016784    0.000000000000
-0.000000016784   -0.100000282826    0.000000000000
 0.000000000000    0.000000000000    0.000000000000

 0.167586822248   -0.000000010185    0.000000000000
-0.000000010185   -0.100000325505    0.000000000000
 0.000000000000    0.000000000000    0.000000000000

 0.167586846615   -0.000000008368    0.000000000000
-0.000000008368   -0.100000339214    0.000000000000
 0.000000000000    0.000000000000    0.000000000000

 0.167586811959   -0.000000007330    0.000000000000
-0.000000007330   -0.100000319732    0.000000000000
 0.000000000000    0.000000000000    0.000000000000

 0.167586658039   -0.000000014421    0.000000000000
-0.000000014421   -0.100000232448    0.000000000000
 0.000000000000    0.000000000000    0.000000000000

 0.167586572785   -0.000000031074    0.000000000000
-0.000000031074   -0.100000184432    0.000000000000
 0.000000000000    0.000000000000    0.000000000000

 0.167586446968   -0.000000024652    0.000000000000
-0.000000024652   -0.100000113446    0.000000000000
 0.000000000000    0.000000000000    0.000000000000

 0.167586374584   -0.000000003529    0.000000000000
-0.000000003529   -0.100000072780    0.000000000000
 0.000000000000    0.000000000000    0.000000000000

 0.167586327343   -0.000000007861    0.000000000000
-0.000000007861   -0.100000046359    0.000000000000
 0.000000000000    0.000000000000    0.000000000000

 0.167586217702   -0.000000017204    0.000000000000
-0.000000017204   -0.099999984431    0.000000000000
 0.000000000000    0.000000000000    0.000000000000

 0.167586124269   -0.000000012516    0.000000000000
-0.000000012516   -0.099999931757    0.000000000000
 0.000000000000    0.000000000000    0.000000000000

 0.167586056914   -0.000000020709    0.000000000000
-0.000000020709   -0.099999893875    0.000000000000
 0.000000000000    0.000000000000    0.000000000000

 0.167585951246   -0.000000028051    0.000000000000
-0.000000028051   -0.099999834026    0.000000000000
 0.000000000000    0.000000000000    0.000000000000

 0.167585888096   -0.000000019901    0.000000000000
-0.000000019901   -0.099999798208    0.000000000000
 0.000000000000    0.000000000000    0.000000000000

 0.167585875120   -0.000000025243    0.000000000000
-0.000000025243   -0.099999790863    0.000000000000
 0.000000000000    0.000000000000    0.000000000000

 0.167585838787   -0.000000029687    0.000000000000
-0.000000029687   -0.099999770191    0.000000000000
 0.000000000000    0.000000000000    0.000000000000

 0.167585858657   -0.000000023000    0.000000000000
-0.000000023000   -0.099999781406    0.000000000000
 0.000000000000    0.000000000000    0.000000000000

 0.167585918039   -0.000000023385    0.000000000000
-0.000000023385   -0.099999815003    0.000000000000
 0.000000000000    0.000000000000    0.000000000000

 0.167585960244   -0.000000022030    0.000000000000
-0.000000022030   -0.099999839688    0.000000000000
 0.000000000000    0.000000000000    0.000000000000

 0.167585749573   -0.000000017446    0.000000000000
-0.000000017446   -0.099999720123    0.000000000000
 0.000000000000    0.000000000000    0.000000000000

 0.167585533599   -0.000000044082    0.000000000000
-0.000000044082   -0.099999597589    0.000000000000
 0.000000000000    0.000000000000    0.000000000000

 0.167585613122   -0.000000031498    0.000000000000
-0.000000031498   -0.099999643147    0.000000000000
 0.000000000000    0.000000000000    0.000000000000

 0.167585667079   -0.000000022138    0.000000000000
-0.000000022138   -0.099999673945    0.000000000000
 0.000000000000    0.000000000000    0.000000000000

 0.167585756072   -0.000000010732    0.000000000000
-0.000000010732   -0.099999724358    0.000000000000
 0.000000000000    0.000000000000    0.000000000000

 0.167585872108   -0.000000004687    0.000000000000
-0.000000004687   -0.099999789727    0.000000000000
 0.000000000000    0.000000000000    0.000000000000

 0.167585997591   -0.000000000515    0.000000000000
-0.000000000515   -0.099999860279    0.000000000000
 0.000000000000    0.000000000000    0.000000000000

 0.167586126026    0.000000001139    0.000000000000
 0.000000001139   -0.099999932554    0.000000000000
 0.000000000000    0.000000000000    0.000000000000

 0.167586251036   -0.000000001113    0.000000000000
-0.000000001113   -0.100000002986    0.000000000000
 0.000000000000    0.000000000000    0.000000000000

 0.167586370426   -0.000000006998    0.000000000000
-0.000000006998   -0.100000070249    0.000000000000
 0.000000000000    0.000000000000    0.000000000000

 0.167586492902   -0.000000014140    0.000000000000
-0.000000014140   -0.100000139324    0.000000000000
 0.000000000000    0.000000000000    0.000000000000

 0.167586617434   -0.000000017425    0.000000000000
-0.000000017425   -0.100000209675    0.000000000000
 0.000000000000    0.000000000000    0.000000000000

 0.167586727142   -0.000000016738    0.000000000000
-0.000000016738   -0.100000271708    0.000000000000
 0.000000000000    0.000000000000    0.000000000000

 0.167586809306   -0.000000014412    0.000000000000
-0.000000014412   -0.100000318224    0.000000000000
 0.000000000000    0.000000000000    0.000000000000

 0.167586864635   -0.000000011829    0.000000000000
-0.000000011829   -0.100000349564    0.000000000000
 0.000000000000    0.000000000000    0.000000000000

 0.167586933267   -0.000000011966    0.000000000000
-0.000000011966   -0.100000388224    0.000000000000
 0.000000000000    0.000000000000    0.000000000000

 0.167586822410   -0.000000006413    0.000000000000
-0.000000006413   -0.100000325619    0.000000000000
 0.000000000000    0.000000000000    0.000000000000

 0.167586711777   -0.000000000380    0.000000000000
-0.000000000380   -0.100000263212    0.000000000000
 0.000000000000    0.000000000000    0.000000000000

 0.167586536449   -0.000000016633    0.000000000000
-0.000000016633   -0.100000163897    0.000000000000
 0.000000000000    0.000000000000    0.000000000000

 0.167586461295   -0.000000013533    0.000000000000
-0.000000013533   -0.100000121433    0.000000000000
 0.000000000000    0.000000000000    0.000000000000

 0.167586363398   -0.000000012659    0.000000000000
-0.000000012659   -0.100000066473    0.000000000000
 0.000000000000    0.000000000000    0.000000000000

 0.167586305656   -0.000000003211    0.000000000000
-0.000000003211   -0.100000034019    0.000000000000
 0.000000000000    0.000000000000    0.000000000000

 0.167586264294   -0.000000009433    0.000000000000
-0.000000009433   -0.100000010704    0.000000000000
 0.000000000000    0.000000000000    0.000000000000

 0.167586160235   -0.000000016976    0.000000000000
-0.000000016976   -0.099999952060    0.000000000000
 0.000000000000    0.000000000000    0.000000000000

 0.167586078607   -0.000000012823    0.000000000000
-0.000000012823   -0.099999906030    0.000000000000
 0.000000000000    0.000000000000    0.000000000000

 0.167586028783   -0.000000020581    0.000000000000
-0.000000020581   -0.099999877851    0.000000000000
 0.000000000000    0.000000000000    0.000000000000

 0.167585941419   -0.000000027040    0.000000000000
-0.000000027040   -0.099999828459    0.000000000000
 0.000000000000    0.000000000000    0.000000000000

 0.167585898318   -0.000000019194    0.000000000000
-0.000000019194   -0.099999803985    0.000000000000
 0.000000000000    0.000000000000    0.000000000000

 0.167585904781   -0.000000021884    0.000000000000
-0.000000021884   -0.099999807496    0.000000000000
 0.000000000000    0.000000000000    0.000000000000

 0.167585892664   -0.000000030350    0.000000000000
-0.000000030350   -0.099999800661    0.000000000000
 0.000000000000    0.000000000000    0.000000000000

 0.167585951119   -0.000000026882    0.000000000000
-0.000000026882   -0.099999833727    0.000000000000
 0.000000000000    0.000000000000    0.000000000000

 0.167586048114   -0.000000020100    0.000000000000
-0.000000020100   -0.099999888780    0.000000000000
 0.000000000000    0.000000000000    0.000000000000

 0.167586065349   -0.000000012308    0.000000000000
-0.000000012308   -0.099999898248    0.000000000000
 0.000000000000    0.000000000000    0.000000000000

 0.167585964325    0.000000001243    0.000000000000
 0.000000001243   -0.099999841618    0.000000000000
 0.000000000000    0.000000000000    0.000000000000

 0.167585815596   -0.000000023090    0.000000000000
-0.000000023090   -0.099999757383    0.000000000000
 0.000000000000    0.000000000000    0.000000000000

 0.167585519846   -0.000000037719    0.000000000000
-0.000000037719   -0.099999590285    0.000000000000
 0.000000000000    0.000000000000    0.000000000000

 0.167585437579   -0.000000058268    0.000000000000
-0.000000058268   -0.099999544391    0.000000000000
 0.000000000000    0.000000000000    0.000000000000

 0.167585553039   -0.000000045980    0.000000000000
-0.000000045980   -0.099999609457    0.000000000000
 0.000000000000    0.000000000000    0.000000000000

 0.167585669732   -0.000000014939    0.000000000000
-0.000000014939   -0.099999675754    0.000000000000
 0.000000000000    0.000000000000    0.000000000000

 0.167585780894   -0.000000000389    0.000000000000
-0.000000000389   -0.099999738485    0.000000000000
 0.000000000000    0.000000000000    0.000000000000

 0.167585898810   -0.000000000293    0.000000000000
-0.000000000293   -0.099999804768    0.000000000000
 0.000000000000    0.000000000000    0.000000000000

 0.167586033827   -0.000000002047    0.000000000000
-0.000000002047   -0.099999880703    0.000000000000
 0.000000000000    0.000000000000    0.000000000000

 0.167586169353   -0.000000001095    0.000000000000
-0.000000001095   -0.099999956983    0.000000000000
 0.000000000000    0.000000000000    0.000000000000

 0.167586296174   -0.000000005262    0.000000000000
-0.000000005262   -0.100000028401    0.000000000000
 0.000000000000    0.000000000000    0.000000000000

 0.167586422542   -0.000000012696    0.000000000000
-0.000000012696   -0.100000099619    0.000000000000
 0.000000000000    0.000000000000    0.000000000000

 0.167586548070   -0.000000015806    0.000000000000
-0.000000015806   -0.100000170456    0.000000000000
 0.000000000000    0.000000000000    0.000000000000

 0.167586666288   -0.000000015548    0.000000000000
-0.000000015548   -0.100000237271    0.000000000000
 0.000000000000    0.000000000000    0.000000000000

 0.167586768623   -0.000000011823    0.000000000000
-0.000000011823   -0.100000295164    0.000000000000
 0.000000000000    0.000000000000    0.000000000000

 0.167586843198   -0.000000008884    0.000000000000
-0.000000008884   -0.100000337367    0.000000000000
 0.000000000000    0.000000000000    0.000000000000

 0.167586899925   -0.000000014318    0.000000000000
-0.000000014318   -0.100000369390    0.000000000000
 0.000000000000    0.000000000000    0.000000000000

 0.167586960811   -0.000000012787    0.000000000000
-0.000000012787   -0.100000403745    0.000000000000
 0.000000000000    0.000000000000    0.000000000000

 0.167586987591   -0.000000011675    0.000000000000
-0.000000011675   -0.100000418820    0.000000000000
 0.000000000000    0.000000000000    0.000000000000

 0.167586892151   -0.000000010284    0.000000000000
-0.000000010284   -0.100000364968    0.000000000000
 0.000000000000    0.000000000000    0.000000000000

 0.167586771797    0.000000000696    0.000000000000
 0.000000000696   -0.100000296985    0.000000000000
 0.000000000000    0.000000000000    0.000000000000

 0.167586647393   -0.000000010363    0.000000000000
-0.000000010363   -0.100000226577    0.000000000000
 0.000000000000    0.000000000000    0.000000000000

 0.167586531095   -0.000000025952    0.000000000000
-0.000000025952   -0.100000160900    0.000000000000
 0.000000000000    0.000000000000    0.000000000000

 0.167586429828   -0.000000013402    0.000000000000
-0.000000013402   -0.100000103600    0.000000000000
 0.000000000000    0.000000000000    0.000000000000

 0.167586358495   -0.000000017651    0.000000000000
-0.000000017651   -0.100000063534    0.000000000000
 0.000000000000    0.000000000000    0.000000000000

 0.167586304740   -0.000000000872    0.000000000000
-0.000000000872   -0.100000033597    0.000000000000
 0.000000000000    0.000000000000    0.000000000000

 0.167586249283    0.000000004156    0.000000000000
 0.000000004156   -0.100000002172    0.000000000000
 0.000000000000    0.000000000000    0.000000000000

 0.167586177934   -0.000000025072    0.000000000000
-0.000000025072   -0.099999961965    0.000000000000
 0.000000000000    0.000000000000    0.000000000000

 0.167586098991   -0.000000019048    0.000000000000
-0.000000019048   -0.099999917665    0.000000000000
 0.000000000000    0.000000000000    0.000000000000

 0.167586032207   -0.000000011743    0.000000000000
-0.000000011743   -0.099999879750    0.000000000000
 0.000000000000    0.000000000000    0.000000000000

 0.167585973090   -0.000000036632    0.000000000000
-0.000000036632   -0.099999846295    0.000000000000
 0.000000000000    0.000000000000    0.000000000000

 0.167585927396   -0.000000027705    0.000000000000
-0.000000027705   -0.099999820587    0.000000000000
 0.000000000000    0.000000000000    0.000000000000

 0.167585909541   -0.000000016337    0.000000000000
-0.000000016337   -0.099999810200    0.000000000000
 0.000000000000    0.000000000000    0.000000000000

 0.167585917512   -0.000000034195    0.000000000000
-0.000000034195   -0.099999814627    0.000000000000
 0.000000000000    0.000000000000    0.000000000000

 0.167585968904   -0.000000019523    0.000000000000
-0.000000019523   -0.099999843896    0.000000000000
 0.000000000000    0.000000000000    0.000000000000

 0.167586058934    0.000000001043    0.000000000000
 0.000000001043   -0.099999894778    0.000000000000
 0.000000000000    0.000000000000    0.000000000000

 0.167586114679   -0.000000015174    0.000000000000
-0.000000015174   -0.099999926487    0.000000000000
 0.000000000000    0.000000000000    0.000000000000

 0.167586157247    0.000000004307    0.000000000000
 0.000000004307   -0.099999950741    0.000000000000
 0.000000000000    0.000000000000    0.000000000000

 0.167586085388    0.000000001501    0.000000000000
 0.000000001501   -0.099999910293    0.000000000000
 0.000000000000    0.000000000000    0.000000000000

 0.167585953179    0.000000000780    0.000000000000
 0.000000000780   -0.099999835445    0.000000000000
 0.000000000000    0.000000000000    0.000000000000

 0.167585630432   -0.000000045531    0.000000000000
-0.000000045531   -0.099999652628    0.000000000000
 0.000000000000    0.000000000000    0.000000000000

 0.167585368004   -0.000000028315    0.000000000000
-0.000000028315   -0.099999504253    0.000000000000
 0.000000000000    0.000000000000    0.000000000000

 0.167585369009   -0.000000007151    0.000000000000
-0.000000007151   -0.099999503932    0.000000000000
 0.000000000000    0.000000000000    0.000000000000

 0.167585444757   -0.000000031784    0.000000000000
-0.000000031784   -0.099999547899    0.000000000000
 0.000000000000    0.000000000000    0.000000000000

 0.167585596199   -0.000000017189    0.000000000000
-0.000000017189   -0.099999634186    0.000000000000
 0.000000000000    0.000000000000    0.000000000000

 0.167585737332   -0.000000007283    0.000000000000
-0.000000007283   -0.099999713876    0.000000000000
 0.000000000000    0.000000000000    0.000000000000

 0.167585855926   -0.000000002644    0.000000000000
-0.000000002644   -0.099999780603    0.000000000000
 0.000000000000    0.000000000000    0.000000000000

 0.167585984618    0.000000001879    0.000000000000
 0.000000001879   -0.099999853003    0.000000000000
 0.000000000000    0.000000000000    0.000000000000

 0.167586123271    0.000000002752    0.000000000000
 0.000000002752   -0.099999931048    0.000000000000
 0.000000000000    0.000000000000    0.000000000000

 0.167586256088   -0.000000000766    0.000000000000
-0.000000000766   -0.100000005830    0.000000000000
 0.000000000000    0.000000000000    0.000000000000

 0.167586384410   -0.000000006567    0.000000000000
-0.000000006567   -0.100000078121    0.000000000000
 0.000000000000    0.000000000000    0.000000000000

 0.167586511920   -0.000000010366    0.000000000000
-0.000000010366   -0.100000150042    0.000000000000
 0.000000000000    0.000000000000    0.000000000000

 0.167586632027   -0.000000011285    0.000000000000
-0.000000011285   -0.100000217892    0.000000000000
 0.000000000000    0.000000000000    0.000000000000

 0.167586738008   -0.000000011239    0.000000000000
-0.000000011239   -0.100000277857    0.000000000000
 0.000000000000    0.000000000000    0.000000000000

 0.167586823017   -0.000000011002    0.000000000000
-0.000000011002   -0.100000325961    0.000000000000
 0.000000000000    0.000000000000    0.000000000000

 0.167586889882   -0.000000014077    0.000000000000
-0.000000014077   -0.100000363719    0.000000000000
 0.000000000000    0.000000000000    0.000000000000

 0.167586950862   -0.000000015880    0.000000000000
-0.000000015880   -0.100000398177    0.000000000000
 0.000000000000    0.000000000000    0.000000000000

 0.167587005432   -0.000000014989    0.000000000000
-0.000000014989   -0.100000428983    0.000000000000
 0.000000000000    0.000000000000    0.000000000000

 0.167587006953   -0.000000011955    0.000000000000
-0.000000011955   -0.100000429768    0.000000000000
 0.000000000000    0.000000000000    0.000000000000

 0.167586911187   -0.000000007615    0.000000000000
-0.000000007615   -0.100000375695    0.000000000000
 0.000000000000    0.000000000000    0.000000000000

 0.167586773492   -0.000000002407    0.000000000000
-0.000000002407   -0.100000298017    0.000000000000
 0.000000000000    0.000000000000    0.000000000000

 0.167586674631   -0.000000002894    0.000000000000
-0.000000002894   -0.100000242115    0.000000000000
 0.000000000000    0.000000000000    0.000000000000

 0.167586479042   -0.000000011584    0.000000000000
-0.000000011584   -0.100000131369    0.000000000000
 0.000000000000    0.000000000000    0.000000000000

 0.167586448222   -0.000000015290    0.000000000000
-0.000000015290   -0.100000114172    0.000000000000
 0.000000000000    0.000000000000    0.000000000000

 0.167586299400   -0.000000015204    0.000000000000
-0.000000015204   -0.100000030061    0.000000000000
 0.000000000000    0.000000000000    0.000000000000

 0.167586256779    0.000000005000    0.000000000000
 0.000000005000   -0.100000006232    0.000000000000
 0.000000000000    0.000000000000    0.000000000000

 0.167586270086   -0.000000004199    0.000000000000
-0.000000004199   -0.100000014245    0.000000000000
 0.000000000000    0.000000000000    0.000000000000

 0.167586155055   -0.000000015760    0.000000000000
-0.000000015760   -0.099999948891    0.000000000000
 0.000000000000    0.000000000000    0.000000000000

 0.167586092055   -0.000000005918    0.000000000000
-0.000000005918   -0.099999913379    0.000000000000
 0.000000000000    0.000000000000    0.000000000000

 0.167586089754   -0.000000018036    0.000000000000
-0.000000018036   -0.099999912555    0.000000000000
 0.000000000000    0.000000000000    0.000000000000

 0.167585982708   -0.000000028803    0.000000000000
-0.000000028803   -0.099999851649    0.000000000000
 0.000000000000    0.000000000000    0.000000000000

 0.167585946513   -0.000000015668    0.000000000000
-0.000000015668   -0.099999831146    0.000000000000
 0.000000000000    0.000000000000    0.000000000000

 0.167585985678   -0.000000022955    0.000000000000
-0.000000022955   -0.099999853634    0.000000000000
 0.000000000000    0.000000000000    0.000000000000

 0.167585933791   -0.000000031572    0.000000000000
-0.000000031572   -0.099999823870    0.000000000000
 0.000000000000    0.000000000000    0.000000000000

 0.167585971827   -0.000000019297    0.000000000000
-0.000000019297   -0.099999845373    0.000000000000
 0.000000000000    0.000000000000    0.000000000000

 0.167586107612   -0.000000020784    0.000000000000
-0.000000020784   -0.099999922610    0.000000000000
 0.000000000000    0.000000000000    0.000000000000

 0.167586138115   -0.000000013686    0.000000000000
-0.000000013686   -0.099999939524    0.000000000000
 0.000000000000    0.000000000000    0.000000000000

 0.167586211930    0.000000003183    0.000000000000
 0.000000003183   -0.099999981121    0.000000000000
 0.000000000000    0.000000000000    0.000000000000

 0.167586317148   -0.000000012065    0.000000000000
-0.000000012065   -0.100000040481    0.000000000000
 0.000000000000    0.000000000000    0.000000000000

 0.167586364335    0.000000004984    0.000000000000
 0.000000004984   -0.100000067379    0.000000000000
 0.000000000000    0.000000000000    0.000000000000

 0.167586102017    0.000000011555    0.000000000000
 0.000000011555   -0.099999919405    0.000000000000
 0.000000000000    0.000000000000    0.000000000000

 0.167585976801    0.000000000654    0.000000000000
 0.000000000654   -0.099999848537    0.000000000000
 0.000000000000    0.000000000000    0.000000000000

 0.167585675828   -0.000000016897    0.000000000000
-0.000000016897   -0.099999678545    0.000000000000
 0.000000000000    0.000000000000    0.000000000000

 0.167585444743   -0.000000019732    0.000000000000
-0.000000019732   -0.099999547260    0.000000000000
 0.000000000000    0.000000000000    0.000000000000

 0.167585241450   -0.000000037008    0.000000000000
-0.000000037008   -0.099999432313    0.000000000000
 0.000000000000    0.000000000000    0.000000000000

 0.167585337718   -0.000000034128    0.000000000000
-0.000000034128   -0.099999487454    0.000000000000
 0.000000000000    0.000000000000    0.000000000000

 0.167585408777   -0.000000010063    0.000000000000
-0.000000010063   -0.099999527967    0.000000000000
 0.000000000000    0.000000000000    0.000000000000

 0.167585576237   -0.000000022039    0.000000000000
-0.000000022039   -0.099999622798    0.000000000000
 0.000000000000    0.000000000000    0.000000000000

 0.167585748358   -0.000000014392    0.000000000000
-0.000000014392   -0.099999719873    0.000000000000
 0.000000000000    0.000000000000    0.000000000000

 0.167585890249    0.000000001352    0.000000000000
 0.000000001352   -0.099999799812    0.000000000000
 0.000000000000    0.000000000000    0.000000000000

 0.167586025753    0.000000005319    0.000000000000
 0.000000005319   -0.099999876163    0.000000000000
 0.000000000000    0.000000000000    0.000000000000

 0.167586162946    0.000000000218    0.000000000000
 0.000000000218   -0.099999953441    0.000000000000
 0.000000000000    0.000000000000    0.000000000000

 0.167586297837   -0.000000006628    0.000000000000
-0.000000006628   -0.100000029399    0.000000000000
 0.000000000000    0.000000000000    0.000000000000

 0.167586429625   -0.000000010424    0.000000000000
-0.000000010424   -0.100000103666    0.000000000000
 0.000000000000    0.000000000000    0.000000000000

 0.167586556577   -0.000000010111    0.000000000000
-0.000000010111   -0.100000175312    0.000000000000
 0.000000000000    0.000000000000    0.000000000000

 0.167586670966   -0.000000007128    0.000000000000
-0.000000007128   -0.100000239941    0.000000000000
 0.000000000000    0.000000000000    0.000000000000

 0.167586767119   -0.000000005728    0.000000000000
-0.000000005728   -0.100000294307    0.000000000000
 0.000000000000    0.000000000000    0.000000000000

 0.167586847228   -0.000000009998    0.000000000000
-0.000000009998   -0.100000339592    0.000000000000
 0.000000000000    0.000000000000    0.000000000000

 0.167586920897   -0.000000013664    0.000000000000
-0.000000013664   -0.100000381224    0.000000000000
 0.000000000000    0.000000000000    0.000000000000

 0.167586984749   -0.000000014286    0.000000000000
-0.000000014286   -0.100000417285    0.000000000000
 0.000000000000    0.000000000000    0.000000000000

 0.167587039176   -0.000000014703    0.000000000000
-0.000000014703   -0.100000447977    0.000000000000
 0.000000000000    0.000000000000    0.000000000000

 0.167587091595   -0.000000011477    0.000000000000
-0.000000011477   -0.100000477524    0.000000000000
 0.000000000000    0.000000000000    0.000000000000

 0.167587057925   -0.000000012517    0.000000000000
-0.000000012517   -0.100000458530    0.000000000000
 0.000000000000    0.000000000000    0.000000000000

 0.167586965197   -0.000000009818    0.000000000000
-0.000000009818   -0.100000406190    0.000000000000
 0.000000000000    0.000000000000    0.000000000000

 0.167586855497   -0.000000007759    0.000000000000
-0.000000007759   -0.100000344200    0.000000000000
 0.000000000000    0.000000000000    0.000000000000

 0.167586719851    0.000000007760    0.000000000000
 0.000000007760   -0.100000267772    0.000000000000
 0.000000000000    0.000000000000    0.000000000000

 0.167586636155   -0.000000009549    0.000000000000
-0.000000009549   -0.100000220193    0.000000000000
 0.000000000000    0.000000000000    0.000000000000

 0.167586367631   -0.000000003635    0.000000000000
-0.000000003635   -0.100000068683    0.000000000000
 0.000000000000    0.000000000000    0.000000000000

 0.167586407486    0.000000005022    0.000000000000
 0.000000005022   -0.100000091003    0.000000000000
 0.000000000000    0.000000000000    0.000000000000

 0.167586325972   -0.000000047047    0.000000000000
-0.000000047047   -0.100000045185    0.000000000000
 0.000000000000    0.000000000000    0.000000000000

 0.167586188152    0.000000005692    0.000000000000
 0.000000005692   -0.099999967414    0.000000000000
 0.000000000000    0.000000000000    0.000000000000

 0.167586249917    0.000000042269    0.000000000000
 0.000000042269   -0.100000002624    0.000000000000
 0.000000000000    0.000000000000    0.000000000000

 0.167586196705   -0.000000047699    0.000000000000
-0.000000047699   -0.099999972638    0.000000000000
 0.000000000000    0.000000000000    0.000000000000

 0.167586040813   -0.000000013865    0.000000000000
-0.000000013865   -0.099999884427    0.000000000000
 0.000000000000    0.000000000000    0.000000000000

 0.167586083976    0.000000021712    0.000000000000
 0.000000021712   -0.099999909078    0.000000000000
 0.000000000000    0.000000000000    0.000000000000

 0.167586039173   -0.000000061867    0.000000000000
-0.000000061867   -0.099999883766    0.000000000000
 0.000000000000    0.000000000000    0.000000000000

 0.167585910246   -0.000000024478    0.000000000000
-0.000000024478   -0.099999810674    0.000000000000
 0.000000000000    0.000000000000    0.000000000000

 0.167585992875    0.000000014400    0.000000000000
 0.000000014400   -0.099999857529    0.000000000000
 0.000000000000    0.000000000000    0.000000000000

 0.167586000124   -0.000000064746    0.000000000000
-0.000000064746   -0.099999861585    0.000000000000
 0.000000000000    0.000000000000    0.000000000000

 0.167585941906   -0.000000022729    0.000000000000
-0.000000022729   -0.099999828458    0.000000000000
 0.000000000000    0.000000000000    0.000000000000

 0.167586110234    0.000000024605    0.000000000000
 0.000000024605   -0.099999923835    0.000000000000
 0.000000000000    0.000000000000    0.000000000000

 0.167586198199   -0.000000044758    0.000000000000
-0.000000044758   -0.099999973685    0.000000000000
 0.000000000000    0.000000000000    0.000000000000

 0.167586180054    0.000000002263    0.000000000000
 0.000000002263   -0.099999963162    0.000000000000
 0.000000000000    0.000000000000    0.000000000000

 0.167586363689    0.000000033946    0.000000000000
 0.000000033946   -0.100000066876    0.000000000000
 0.000000000000    0.000000000000    0.000000000000

 0.167586420986   -0.000000005100    0.000000000000
-0.000000005100   -0.100000099266    0.000000000000
 0.000000000000    0.000000000000    0.000000000000

 0.167586366351    0.000000022053    0.000000000000
 0.000000022053   -0.100000068644    0.000000000000
 0.000000000000    0.000000000000    0.000000000000

 0.167586299327   -0.000000018883    0.000000000000
-0.000000018883   -0.100000030730    0.000000000000
 0.000000000000    0.000000000000    0.000000000000

 0.167586140451    0.000000010006    0.000000000000
 0.000000010006   -0.099999940777    0.000000000000
 0.000000000000    0.000000000000    0.000000000000

 0.167585790918   -0.000000041827    0.000000000000
-0.000000041827   -0.099999743779    0.000000000000
 0.000000000000    0.000000000000    0.000000000000

 0.167585465943   -0.000000021779    0.000000000000
-0.000000021779   -0.099999559828    0.000000000000
 0.000000000000    0.000000000000    0.000000000000

 0.167585294942   -0.000000031189    0.000000000000
-0.000000031189   -0.099999463100    0.000000000000
 0.000000000000    0.000000000000    0.000000000000

 0.167585191737   -0.000000061060    0.000000000000
-0.000000061060   -0.099999405121    0.000000000000
 0.000000000000    0.000000000000    0.000000000000

 0.167585256112   -0.000000014044    0.000000000000
-0.000000014044   -0.099999441706    0.000000000000
 0.000000000000    0.000000000000    0.000000000000

 0.167585348971   -0.000000013095    0.000000000000
-0.000000013095   -0.099999494190    0.000000000000
 0.000000000000    0.000000000000    0.000000000000

 0.167585488088   -0.000000004206    0.000000000000
-0.000000004206   -0.099999572797    0.000000000000
 0.000000000000    0.000000000000    0.000000000000

 0.167585658400   -0.000000008497    0.000000000000
-0.000000008497   -0.099999669031    0.000000000000
 0.000000000000    0.000000000000    0.000000000000

 0.167585830160   -0.000000002408    0.000000000000
-0.000000002408   -0.099999765861    0.000000000000
 0.000000000000    0.000000000000    0.000000000000

 0.167585980552    0.000000002327    0.000000000000
 0.000000002327   -0.099999850599    0.000000000000
 0.000000000000    0.000000000000    0.000000000000

 0.167586117609    0.000000001140    0.000000000000
 0.000000001140   -0.099999927868    0.000000000000
 0.000000000000    0.000000000000    0.000000000000

 0.167586251838   -0.000000003098    0.000000000000
-0.000000003098   -0.100000003508    0.000000000000
 0.000000000000    0.000000000000    0.000000000000

 0.167586385211   -0.000000006143    0.000000000000
-0.000000006143   -0.100000078658    0.000000000000
 0.000000000000    0.000000000000    0.000000000000

 0.167586514234   -0.000000006293    0.000000000000
-0.000000006293   -0.100000151436    0.000000000000
 0.000000000000    0.000000000000    0.000000000000

 0.167586632910   -0.000000005300    0.000000000000
-0.000000005300   -0.100000218466    0.000000000000
 0.000000000000    0.000000000000    0.000000000000

 0.167586734381   -0.000000005323    0.000000000000
-0.000000005323   -0.100000275826    0.000000000000
 0.000000000000    0.000000000000    0.000000000000

 0.167586819452   -0.000000007853    0.000000000000
-0.000000007853   -0.100000323908    0.000000000000
 0.000000000000    0.000000000000    0.000000000000

 0.167586897145   -0.000000011728    0.000000000000
-0.000000011728   -0.100000367799    0.000000000000
 0.000000000000    0.000000000000    0.000000000000

 0.167586967402   -0.000000013797    0.000000000000
-0.000000013797   -0.100000407483    0.000000000000
 0.000000000000    0.000000000000    0.000000000000

 0.167587027901   -0.000000014813    0.000000000000
-0.000000014813   -0.100000441610    0.000000000000
 0.000000000000    0.000000000000    0.000000000000

 0.167587080495   -0.000000013807    0.000000000000
-0.000000013807   -0.100000471269    0.000000000000
 0.000000000000    0.000000000000    0.000000000000

 0.167587126816   -0.000000011216    0.000000000000
-0.000000011216   -0.100000497397    0.000000000000
 0.000000000000    0.000000000000    0.000000000000

 0.167587136559   -0.000000008141    0.000000000000
-0.000000008141   -0.100000502901    0.000000000000
 0.000000000000    0.000000000000    0.000000000000

 0.167587069649   -0.000000009164    0.000000000000
-0.000000009164   -0.100000465113    0.000000000000
 0.000000000000    0.000000000000    0.000000000000

 0.167586978185   -0.000000007960    0.000000000000
-0.000000007960   -0.100000413497    0.000000000000
 0.000000000000    0.000000000000    0.000000000000

 0.167586864798   -0.000000003899    0.000000000000
-0.000000003899   -0.100000349468    0.000000000000
 0.000000000000    0.000000000000    0.000000000000

 0.167586733573   -0.000000004566    0.000000000000
-0.000000004566   -0.100000275519    0.000000000000
 0.000000000000    0.000000000000    0.000000000000

 0.167586624431    0.000000018553    0.000000000000
 0.000000018553   -0.100000213804    0.000000000000
 0.000000000000    0.000000000000    0.000000000000

 0.167586490619   -0.000000047594    0.000000000000
-0.000000047594   -0.100000137984    0.000000000000
 0.000000000000    0.000000000000    0.000000000000

 0.167586310059   -0.000000012138    0.000000000000
-0.000000012138   -0.100000036162    0.000000000000
 0.000000000000    0.000000000000    0.000000000000

 0.167586216046   -0.000000012379    0.000000000000
-0.000000012379   -0.099999982608    0.000000000000
 0.000000000000    0.000000000000    0.000000000000

 0.167586201101    0.000000006353    0.000000000000
 0.000000006353   -0.099999974559    0.000000000000
 0.000000000000    0.000000000000    0.000000000000

 0.167586171957    0.000000002058    0.000000000000
 0.000000002058   -0.099999959169    0.000000000000
 0.000000000000    0.000000000000    0.000000000000

 0.167586131899   -0.000000008586    0.000000000000
-0.000000008586   -0.099999935599    0.000000000000
 0.000000000000    0.000000000000    0.000000000000

 0.167586082178   -0.000000001556    0.000000000000
-0.000000001556   -0.099999907538    0.000000000000
 0.000000000000    0.000000000000    0.000000000000

 0.167586034943   -0.000000012074    0.000000000000
-0.000000012074   -0.099999881894    0.000000000000
 0.000000000000    0.000000000000    0.000000000000

 0.167585998930   -0.000000022073    0.000000000000
-0.000000022073   -0.099999860585    0.000000000000
 0.000000000000    0.000000000000    0.000000000000

 0.167585976460   -0.000000014037    0.000000000000
-0.000000014037   -0.099999847873    0.000000000000
 0.000000000000    0.000000000000    0.000000000000

 0.167585969976   -0.000000020766    0.000000000000
-0.000000020766   -0.099999845168    0.000000000000
 0.000000000000    0.000000000000    0.000000000000

 0.167585984139   -0.000000027101    0.000000000000
-0.000000027101   -0.099999852190    0.000000000000
 0.000000000000    0.000000000000    0.000000000000

 0.167586023562   -0.000000017962    0.000000000000
-0.000000017962   -0.099999874492    0.000000000000
 0.000000000000    0.000000000000    0.000000000000

 0.167586094760   -0.000000021775    0.000000000000
-0.000000021775   -0.099999915769    0.000000000000
 0.000000000000    0.000000000000    0.000000000000

 0.167586184400   -0.000000018442    0.000000000000
-0.000000018442   -0.099999965524    0.000000000000
 0.000000000000    0.000000000000    0.000000000000

 0.167586265891    0.000000002627    0.000000000000
 0.000000002627   -0.100000011514    0.000000000000
 0.000000000000    0.000000000000    0.000000000000

 0.167586346758   -0.000000003310    0.000000000000
-0.000000003310   -0.100000057938    0.000000000000
 0.000000000000    0.000000000000    0.000000000000

 0.167586448092    0.000000001234    0.000000000000
 0.000000001234   -0.100000114327    0.000000000000
 0.000000000000    0.000000000000    0.000000000000

 0.167586466009    0.000000015165    0.000000000000
 0.000000015165   -0.100000124529    0.000000000000
 0.000000000000    0.000000000000    0.000000000000

 0.167586496377    0.000000017395    0.000000000000
 0.000000017395   -0.100000141989    0.000000000000
 0.000000000000    0.000000000000    0.000000000000

 0.167586387999    0.000000040494    0.000000000000
 0.000000040494   -0.100000081474    0.000000000000
 0.000000000000    0.000000000000    0.000000000000

 0.167586291844   -0.000000003623    0.000000000000
-0.000000003623   -0.100000026744    0.000000000000
 0.000000000000    0.000000000000    0.000000000000

 0.167586110808    0.000000011845    0.000000000000
 0.000000011845   -0.099999923877    0.000000000000
 0.000000000000    0.000000000000    0.000000000000

 0.167585777338    0.000000018629    0.000000000000
 0.000000018629   -0.099999736001    0.000000000000
 0.000000000000    0.000000000000    0.000000000000

 0.167585687170   -0.000000000838    0.000000000000
-0.000000000838   -0.099999684131    0.000000000000
 0.000000000000    0.000000000000    0.000000000000

 0.167585306977   -0.000000041964    0.000000000000
-0.000000041964   -0.099999470137    0.000000000000
 0.000000000000    0.000000000000    0.000000000000

 0.167585098394   -0.000000042180    0.000000000000
-0.000000042180   -0.099999351840    0.000000000000
 0.000000000000    0.000000000000    0.000000000000

 0.167585056371   -0.000000017068    0.000000000000
-0.000000017068   -0.099999328962    0.000000000000
 0.000000000000    0.000000000000    0.000000000000

 0.167585208385   -0.000000028512    0.000000000000
-0.000000028512   -0.099999414829    0.000000000000
 0.000000000000    0.000000000000    0.000000000000

 0.167585345881   -0.000000006484    0.000000000000
-0.000000006484   -0.099999492837    0.000000000000
 0.000000000000    0.000000000000    0.000000000000

 0.167585496205   -0.000000001032    0.000000000000
-0.000000001032   -0.099999577284    0.000000000000
 0.000000000000    0.000000000000    0.000000000000

 0.167585656389   -0.000000006181    0.000000000000
-0.000000006181   -0.099999667425    0.000000000000
 0.000000000000    0.000000000000    0.000000000000

 0.167585843339   -0.000000010550    0.000000000000
-0.000000010550   -0.099999772983    0.000000000000
 0.000000000000    0.000000000000    0.000000000000

 0.167586014544   -0.000000003503    0.000000000000
-0.000000003503   -0.099999869665    0.000000000000
 0.000000000000    0.000000000000    0.000000000000

 0.167586157291    0.000000000072    0.000000000000
 0.000000000072   -0.099999950218    0.000000000000
 0.000000000000    0.000000000000    0.000000000000

 0.167586289456   -0.000000003693    0.000000000000
-0.000000003693   -0.100000024745    0.000000000000
 0.000000000000    0.000000000000    0.000000000000

 0.167586421547   -0.000000006275    0.000000000000
-0.000000006275   -0.100000099245    0.000000000000
 0.000000000000    0.000000000000    0.000000000000

 0.167586547970   -0.000000004462    0.000000000000
-0.000000004462   -0.100000170597    0.000000000000
 0.000000000000    0.000000000000    0.000000000000

 0.167586660524   -0.000000001890    0.000000000000
-0.000000001890   -0.100000234158    0.000000000000
 0.000000000000    0.000000000000    0.000000000000

 0.167586755729   -0.000000002483    0.000000000000
-0.000000002483   -0.100000287928    0.000000000000
 0.000000000000    0.000000000000    0.000000000000

 0.167586838772   -0.000000006624    0.000000000000
-0.000000006624   -0.100000334814    0.000000000000
 0.000000000000    0.000000000000    0.000000000000

 0.167586917538   -0.000000010247    0.000000000000
-0.000000010247   -0.100000379294    0.000000000000
 0.000000000000    0.000000000000    0.000000000000

 0.167586988868   -0.000000012700    0.000000000000
-0.000000012700   -0.100000419554    0.000000000000
 0.000000000000    0.000000000000    0.000000000000

 0.167587052646   -0.000000013270    0.000000000000
-0.000000013270   -0.100000455548    0.000000000000
 0.000000000000    0.000000000000    0.000000000000

 0.167587107058   -0.000000011865    0.000000000000
-0.000000011865   -0.100000486243    0.000000000000
 0.000000000000    0.000000000000    0.000000000000

 0.167587149192   -0.000000009181    0.000000000000
-0.000000009181   -0.100000509982    0.000000000000
 0.000000000000    0.000000000000    0.000000000000

 0.167587169300   -0.000000007956    0.000000000000
-0.000000007956   -0.100000521297    0.000000000000
 0.000000000000    0.000000000000    0.000000000000

 0.167587110085   -0.000000007788    0.000000000000
-0.000000007788   -0.100000487936    0.000000000000
 0.000000000000    0.000000000000    0.000000000000

 0.167587033123   -0.000000009953    0.000000000000
-0.000000009953   -0.100000444488    0.000000000000
 0.000000000000    0.000000000000    0.000000000000

 0.167586923696   -0.000000003978    0.000000000000
-0.000000003978   -0.100000382719    0.000000000000
 0.000000000000    0.000000000000    0.000000000000

 0.167586816336   -0.000000010865    0.000000000000
-0.000000010865   -0.100000322109    0.000000000000
 0.000000000000    0.000000000000    0.000000000000

 0.167586672252    0.000000017521    0.000000000000
 0.000000017521   -0.100000240758    0.000000000000
 0.000000000000    0.000000000000    0.000000000000

 0.167586567278   -0.000000000413    0.000000000000
-0.000000000413   -0.100000181716    0.000000000000
 0.000000000000    0.000000000000    0.000000000000

 0.167586417119   -0.000000008547    0.000000000000
-0.000000008547   -0.100000096280    0.000000000000
 0.000000000000    0.000000000000    0.000000000000

 0.167586366716   -0.000000010082    0.000000000000
-0.000000010082   -0.100000068555    0.000000000000
 0.000000000000    0.000000000000    0.000000000000

 0.167586231039   -0.000000050449    0.000000000000
-0.000000050449   -0.099999991676    0.000000000000
 0.000000000000    0.000000000000    0.000000000000

 0.167586039633    0.000000005814    0.000000000000
 0.000000005814   -0.099999883007    0.000000000000
 0.000000000000    0.000000000000    0.000000000000

 0.167586209962    0.000000034208    0.000000000000
 0.000000034208   -0.099999980288    0.000000000000
 0.000000000000    0.000000000000    0.000000000000

 0.167586167848   -0.000000018908    0.000000000000
-0.000000018908   -0.099999956527    0.000000000000
 0.000000000000    0.000000000000    0.000000000000

 0.167585945668   -0.000000007557    0.000000000000
-0.000000007557   -0.099999830153    0.000000000000
 0.000000000000    0.000000000000    0.000000000000

 0.167586078092    0.000000008672    0.000000000000
 0.000000008672   -0.099999905928    0.000000000000
 0.000000000000    0.000000000000    0.000000000000

 0.167586044271   -0.000000035396    0.000000000000
-0.000000035396   -0.099999886843    0.000000000000
 0.000000000000    0.000000000000    0.000000000000

 0.167585850257   -0.000000017806    0.000000000000
-0.000000017806   -0.099999776312    0.000000000000
 0.000000000000    0.000000000000    0.000000000000

 0.167586023576    0.000000000423    0.000000000000
 0.000000000423   -0.099999875130    0.000000000000
 0.000000000000    0.000000000000    0.000000000000

 0.167586041591   -0.000000040716    0.000000000000
-0.000000040716   -0.099999885305    0.000000000000
 0.000000000000    0.000000000000    0.000000000000

 0.167585909574   -0.000000019019    0.000000000000
-0.000000019019   -0.099999809814    0.000000000000
 0.000000000000    0.000000000000    0.000000000000

 0.167586157141    0.000000005570    0.000000000000
 0.000000005570   -0.099999950628    0.000000000000
 0.000000000000    0.000000000000    0.000000000000

 0.167586249817   -0.000000029046    0.000000000000
-0.000000029046   -0.100000003060    0.000000000000
 0.000000000000    0.000000000000    0.000000000000

 0.167586164631   -0.000000004798    0.000000000000
-0.000000004798   -0.099999954043    0.000000000000
 0.000000000000    0.000000000000    0.000000000000

 0.167586417725    0.000000021697    0.000000000000
 0.000000021697   -0.100000097741    0.000000000000
 0.000000000000    0.000000000000    0.000000000000

 0.167586505010   -0.000000005918    0.000000000000
-0.000000005918   -0.100000147078    0.000000000000
 0.000000000000    0.000000000000    0.000000000000

 0.167586399825    0.000000009595    0.000000000000
 0.000000009595   -0.100000087028    0.000000000000
 0.000000000000    0.000000000000    0.000000000000

 0.167586561420    0.000000021441    0.000000000000
 0.000000021441   -0.100000178917    0.000000000000
 0.000000000000    0.000000000000    0.000000000000

 0.167586631980    0.000000002955    0.000000000000
 0.000000002955   -0.100000217830    0.000000000000
 0.000000000000    0.000000000000    0.000000000000

 0.167586543433   -0.000000020206    0.000000000000
-0.000000020206   -0.100000168216    0.000000000000
 0.000000000000    0.000000000000    0.000000000000

 0.167586289861    0.000000026881    0.000000000000
 0.000000026881   -0.100000025916    0.000000000000
 0.000000000000    0.000000000000    0.000000000000

 0.167586380743    0.000000006622    0.000000000000
 0.000000006622   -0.100000075620    0.000000000000
 0.000000000000    0.000000000000    0.000000000000

 0.167585931912   -0.000000046120    0.000000000000
-0.000000046120   -0.099999823106    0.000000000000
 0.000000000000    0.000000000000    0.000000000000

 0.167585627296   -0.000000000604    0.000000000000
-0.000000000604   -0.099999651600    0.000000000000
 0.000000000000    0.000000000000    0.000000000000

 0.167585417143   -0.000000035704    0.000000000000
-0.000000035704   -0.099999532749    0.000000000000
 0.000000000000    0.000000000000    0.000000000000

 0.167585264849   -0.000000027870    0.000000000000
-0.000000027870   -0.099999446085    0.000000000000
 0.000000000000    0.000000000000    0.000000000000

 0.167585020111   -0.000000005683    0.000000000000
-0.000000005683   -0.099999307755    0.000000000000
 0.000000000000    0.000000000000    0.000000000000

 0.167584962282   -0.000000028663    0.000000000000
-0.000000028663   -0.099999275348    0.000000000000
 0.000000000000    0.000000000000    0.000000000000

 0.167585099538   -0.000000030081    0.000000000000
-0.000000030081   -0.099999353759    0.000000000000
 0.000000000000    0.000000000000    0.000000000000

 0.167585272136   -0.000000004465    0.000000000000
-0.000000004465   -0.099999451253    0.000000000000
 0.000000000000    0.000000000000    0.000000000000

 0.167585426946   -0.000000001751    0.000000000000
-0.000000001751   -0.099999538259    0.000000000000
 0.000000000000    0.000000000000    0.000000000000

 0.167585579914    0.000000002547    0.000000000000
 0.000000002547   -0.099999624181    0.000000000000
 0.000000000000    0.000000000000    0.000000000000

 0.167585754487    0.000000002565    0.000000000000
 0.000000002565   -0.099999722646    0.000000000000
 0.000000000000    0.000000000000    0.000000000000

 0.167585940992    0.000000000228    0.000000000000
 0.000000000228   -0.099999828039    0.000000000000
 0.000000000000    0.000000000000    0.000000000000

 0.167586105155   -0.000000003246    0.000000000000
-0.000000003246   -0.099999920730    0.000000000000
 0.000000000000    0.000000000000    0.000000000000

 0.167586243132   -0.000000006224    0.000000000000
-0.000000006224   -0.099999998585    0.000000000000
 0.000000000000    0.000000000000    0.000000000000

 0.167586373322   -0.000000005686    0.000000000000
-0.000000005686   -0.100000072056    0.000000000000
 0.000000000000    0.000000000000    0.000000000000

 0.167586501110   -0.000000002622    0.000000000000
-0.000000002622   -0.100000144193    0.000000000000
 0.000000000000    0.000000000000    0.000000000000

 0.167586618299   -0.000000000654    0.000000000000
-0.000000000654   -0.100000210367    0.000000000000
 0.000000000000    0.000000000000    0.000000000000

 0.167586718931   -0.000000001694    0.000000000000
-0.000000001694   -0.100000267195    0.000000000000
 0.000000000000    0.000000000000    0.000000000000

 0.167586806451   -0.000000004921    0.000000000000
-0.000000004921   -0.100000316597    0.000000000000
 0.000000000000    0.000000000000    0.000000000000

 0.167586887072   -0.000000007946    0.000000000000
-0.000000007946   -0.100000362098    0.000000000000
 0.000000000000    0.000000000000    0.000000000000

 0.167586961978   -0.000000010095    0.000000000000
-0.000000010095   -0.100000404367    0.000000000000
 0.000000000000    0.000000000000    0.000000000000

 0.167587030852   -0.000000011475    0.000000000000
-0.000000011475   -0.100000443225    0.000000000000
 0.000000000000    0.000000000000    0.000000000000

 0.167587090732   -0.000000011667    0.000000000000
-0.000000011667   -0.100000477021    0.000000000000
 0.000000000000    0.000000000000    0.000000000000

 0.167587139902   -0.000000010571    0.000000000000
-0.000000010571   -0.100000504772    0.000000000000
 0.000000000000    0.000000000000    0.000000000000

 0.167587177281   -0.000000008686    0.000000000000
-0.000000008686   -0.100000525889    0.000000000000
 0.000000000000    0.000000000000    0.000000000000

 0.167587182279   -0.000000005128    0.000000000000
-0.000000005128   -0.100000528664    0.000000000000
 0.000000000000    0.000000000000    0.000000000000

 0.167587117731   -0.000000006115    0.000000000000
-0.000000006115   -0.100000492224    0.000000000000
 0.000000000000    0.000000000000    0.000000000000

 0.167587040783   -0.000000004062    0.000000000000
-0.000000004062   -0.100000448793    0.000000000000
 0.000000000000    0.000000000000    0.000000000000

 0.167586929300   -0.000000006613    0.000000000000
-0.000000006613   -0.100000385885    0.000000000000
 0.000000000000    0.000000000000    0.000000000000

 0.167586831938   -0.000000000635    0.000000000000
-0.000000000635   -0.100000330940    0.000000000000
 0.000000000000    0.000000000000    0.000000000000

 0.167586661127   -0.000000000797    0.000000000000
-0.000000000797   -0.100000234484    0.000000000000
 0.000000000000    0.000000000000    0.000000000000

 0.167586576585    0.000000008020    0.000000000000
 0.000000008020   -0.100000187056    0.000000000000
 0.000000000000    0.000000000000    0.000000000000

 0.167586452974    0.000000020363    0.000000000000
 0.000000020363   -0.100000116065    0.000000000000
 0.000000000000    0.000000000000    0.000000000000

 0.167586113307   -0.000000009464    0.000000000000
-0.000000009464   -0.099999924535    0.000000000000
 0.000000000000    0.000000000000    0.000000000000

 0.167586097402   -0.000000015742    0.000000000000
-0.000000015742   -0.099999916119    0.000000000000
 0.000000000000    0.000000000000    0.000000000000

 0.167586008943    0.000000011579    0.000000000000
 0.000000011579   -0.099999866947    0.000000000000
 0.000000000000    0.000000000000    0.000000000000

 0.167586090416    0.000000028900    0.000000000000
 0.000000028900   -0.099999912383    0.000000000000
 0.000000000000    0.000000000000    0.000000000000

 0.167586051734   -0.000000026630    0.000000000000
-0.000000026630   -0.099999890457    0.000000000000
 0.000000000000    0.000000000000    0.000000000000

 0.167585910238   -0.000000004380    0.000000000000
-0.000000004380   -0.099999811043    0.000000000000
 0.000000000000    0.000000000000    0.000000000000

 0.167585980887    0.000000017219    0.000000000000
 0.000000017219   -0.099999850523    0.000000000000
 0.000000000000    0.000000000000    0.000000000000

 0.167585966923   -0.000000039895    0.000000000000
-0.000000039895   -0.099999842649    0.000000000000
 0.000000000000    0.000000000000    0.000000000000

 0.167585871412   -0.000000015252    0.000000000000
-0.000000015252   -0.099999789162    0.000000000000
 0.000000000000    0.000000000000    0.000000000000

 0.167585995663    0.000000010113    0.000000000000
 0.000000010113   -0.099999858890    0.000000000000
 0.000000000000    0.000000000000    0.000000000000

 0.167586044899   -0.000000045446    0.000000000000
-0.000000045446   -0.099999886731    0.000000000000
 0.000000000000    0.000000000000    0.000000000000

 0.167586022909   -0.000000018518    0.000000000000
-0.000000018518   -0.099999874843    0.000000000000
 0.000000000000    0.000000000000    0.000000000000

 0.167586222023    0.000000012996    0.000000000000
 0.000000012996   -0.099999986936    0.000000000000
 0.000000000000    0.000000000000    0.000000000000

 0.167586325466   -0.000000032877    0.000000000000
-0.000000032877   -0.100000045378    0.000000000000
 0.000000000000    0.000000000000    0.000000000000

 0.167586320697   -0.000000001009    0.000000000000
-0.000000001009   -0.100000043053    0.000000000000
 0.000000000000    0.000000000000    0.000000000000

 0.167586503157    0.000000029244    0.000000000000
 0.000000029244   -0.100000145622    0.000000000000
 0.000000000000    0.000000000000    0.000000000000

 0.167586560606   -0.000000016147    0.000000000000
-0.000000016147   -0.100000178020    0.000000000000
 0.000000000000    0.000000000000    0.000000000000

 0.167586503067    0.000000011295    0.000000000000
 0.000000011295   -0.100000145733    0.000000000000
 0.000000000000    0.000000000000    0.000000000000

 0.167586655512    0.000000004023    0.000000000000
 0.000000004023   -0.100000231520    0.000000000000
 0.000000000000    0.000000000000    0.000000000000

 0.167586705743   -0.000000046051    0.000000000000
-0.000000046051   -0.100000259927    0.000000000000
 0.000000000000    0.000000000000    0.000000000000

 0.167586559491   -0.000000038708    0.000000000000
-0.000000038708   -0.100000176753    0.000000000000
 0.000000000000    0.000000000000    0.000000000000

 0.167586354926    0.000000004271    0.000000000000
 0.000000004271   -0.100000062814    0.000000000000
 0.000000000000    0.000000000000    0.000000000000

 0.167586293037    0.000000007552    0.000000000000
 0.000000007552   -0.100000026823    0.000000000000
 0.000000000000    0.000000000000    0.000000000000

 0.167585875104    0.000000048481    0.000000000000
 0.000000048481   -0.099999790872    0.000000000000
 0.000000000000    0.000000000000    0.000000000000

 0.167585813835    0.000000032641    0.000000000000
 0.000000032641   -0.099999755580    0.000000000000
 0.000000000000    0.000000000000    0.000000000000

 0.167585556906   -0.000000049781    0.000000000000
-0.000000049781   -0.099999611243    0.000000000000
 0.000000000000    0.000000000000    0.000000000000

 0.167585119207   -0.000000020754    0.000000000000
-0.000000020754   -0.099999364464    0.000000000000
 0.000000000000    0.000000000000    0.000000000000

 0.167585000428   -0.000000016871    0.000000000000
-0.000000016871   -0.099999296758    0.000000000000
 0.000000000000    0.000000000000    0.000000000000

 0.167584920689   -0.000000023729    0.000000000000
-0.000000023729   -0.099999252717    0.000000000000
 0.000000000000    0.000000000000    0.000000000000

 0.167585035965   -0.000000010911    0.000000000000
-0.000000010911   -0.099999317686    0.000000000000
 0.000000000000    0.000000000000    0.000000000000

 0.167585259086   -0.000000020519    0.000000000000
-0.000000020519   -0.099999443800    0.000000000000
 0.000000000000    0.000000000000    0.000000000000

 0.167585431388   -0.000000001503    0.000000000000
-0.000000001503   -0.099999540536    0.000000000000
 0.000000000000    0.000000000000    0.000000000000

 0.167585596980    0.000000005506    0.000000000000
 0.000000005506   -0.099999633653    0.000000000000
 0.000000000000    0.000000000000    0.000000000000

 0.167585771467    0.000000003064    0.000000000000
 0.000000003064   -0.099999732058    0.000000000000
 0.000000000000    0.000000000000    0.000000000000

 0.167585954481   -0.000000006899    0.000000000000
-0.000000006899   -0.099999835449    0.000000000000
 0.000000000000    0.000000000000    0.000000000000

 0.167586125165   -0.000000010818    0.000000000000
-0.000000010818   -0.099999931871    0.000000000000
 0.000000000000    0.000000000000    0.000000000000

 0.167586271719   -0.000000006289    0.000000000000
-0.000000006289   -0.100000014667    0.000000000000
 0.000000000000    0.000000000000    0.000000000000

 0.167586403175   -0.000000001147    0.000000000000
-0.000000001147   -0.100000088965    0.000000000000
 0.000000000000    0.000000000000    0.000000000000

 0.167586526152    0.000000001374    0.000000000000
 0.000000001374   -0.100000158458    0.000000000000
 0.000000000000    0.000000000000    0.000000000000

 0.167586636525    0.000000001613    0.000000000000
 0.000000001613   -0.100000220781    0.000000000000
 0.000000000000    0.000000000000    0.000000000000

 0.167586732406   -0.000000000550    0.000000000000
-0.000000000550   -0.100000274878    0.000000000000
 0.000000000000    0.000000000000    0.000000000000

 0.167586819564   -0.000000003590    0.000000000000
-0.000000003590   -0.100000324035    0.000000000000
 0.000000000000    0.000000000000    0.000000000000

 0.167586900446   -0.000000005838    0.000000000000
-0.000000005838   -0.100000369641    0.000000000000
 0.000000000000    0.000000000000    0.000000000000

 0.167586975274   -0.000000008122    0.000000000000
-0.000000008122   -0.100000411829    0.000000000000
 0.000000000000    0.000000000000    0.000000000000

 0.167587045067   -0.000000009340    0.000000000000
-0.000000009340   -0.100000451204    0.000000000000
 0.000000000000    0.000000000000    0.000000000000

 0.167587106002   -0.000000009185    0.000000000000
-0.000000009185   -0.100000485595    0.000000000000
 0.000000000000    0.000000000000    0.000000000000

 0.167587156105   -0.000000008286    0.000000000000
-0.000000008286   -0.100000513890    0.000000000000
 0.000000000000    0.000000000000    0.000000000000

 0.167587195857   -0.000000006461    0.000000000000
-0.000000006461   -0.100000536333    0.000000000000
 0.000000000000    0.000000000000    0.000000000000

 0.167587210361   -0.000000004274    0.000000000000
-0.000000004274   -0.100000544538    0.000000000000
 0.000000000000    0.000000000000    0.000000000000

 0.167587154568   -0.000000005565    0.000000000000
-0.000000005565   -0.100000513019    0.000000000000
 0.000000000000    0.000000000000    0.000000000000

 0.167587082698   -0.000000004696    0.000000000000
-0.000000004696   -0.100000472453    0.000000000000
 0.000000000000    0.000000000000    0.000000000000

 0.167586992553   -0.000000005696    0.000000000000
-0.000000005696   -0.100000421557    0.000000000000
 0.000000000000    0.000000000000    0.000000000000

 0.167586879568   -0.000000003075    0.000000000000
-0.000000003075   -0.100000357823    0.000000000000
 0.000000000000    0.000000000000    0.000000000000

 0.167586772791   -0.000000001710    0.000000000000
-0.000000001710   -0.100000297436    0.000000000000
 0.000000000000    0.000000000000    0.000000000000

 0.167586590866    0.000000003992    0.000000000000
 0.000000003992   -0.100000194950    0.000000000000
 0.000000000000    0.000000000000    0.000000000000

 0.167586549805    0.000000022327    0.000000000000
 0.000000022327   -0.100000171643    0.000000000000
 0.000000000000    0.000000000000    0.000000000000

 0.167586169378   -0.000000065370    0.000000000000
-0.000000065370   -0.099999956857    0.000000000000
 0.000000000000    0.000000000000    0.000000000000

 0.167586184594   -0.000000054247    0.000000000000
-0.000000054247   -0.099999966052    0.000000000000
 0.000000000000    0.000000000000    0.000000000000

 0.167585966396   -0.000000001271    0.000000000000
-0.000000001271   -0.099999842271    0.000000000000
 0.000000000000    0.000000000000    0.000000000000

 0.167586085555   -0.000000009287    0.000000000000
-0.000000009287   -0.099999909366    0.000000000000
 0.000000000000    0.000000000000    0.000000000000

 0.167585984776   -0.000000026902    0.000000000000
-0.000000026902   -0.099999853051    0.000000000000
 0.000000000000    0.000000000000    0.000000000000

 0.167585960831    0.000000062459    0.000000000000
 0.000000062459   -0.099999839457    0.000000000000
 0.000000000000    0.000000000000    0.000000000000

 0.167586111836   -0.000000005588    0.000000000000
-0.000000005588   -0.099999924235    0.000000000000
 0.000000000000    0.000000000000    0.000000000000

 0.167585890433   -0.000000062247    0.000000000000
-0.000000062247   -0.099999799741    0.000000000000
 0.000000000000    0.000000000000    0.000000000000

 0.167585860352    0.000000049238    0.000000000000
 0.000000049238   -0.099999782777    0.000000000000
 0.000000000000    0.000000000000    0.000000000000

 0.167586035055   -0.000000008885    0.000000000000
-0.000000008885   -0.099999880948    0.000000000000
 0.000000000000    0.000000000000    0.000000000000

 0.167585854914   -0.000000067380    0.000000000000
-0.000000067380   -0.099999779748    0.000000000000
 0.000000000000    0.000000000000    0.000000000000

 0.167585882092    0.000000044626    0.000000000000
 0.000000044626   -0.099999795122    0.000000000000
 0.000000000000    0.000000000000    0.000000000000

 0.167586120936   -0.000000012010    0.000000000000
-0.000000012010   -0.099999929521    0.000000000000
 0.000000000000    0.000000000000    0.000000000000

 0.167586014808   -0.000000066739    0.000000000000
-0.000000066739   -0.099999870139    0.000000000000
 0.000000000000    0.000000000000    0.000000000000

 0.167586118768    0.000000050301    0.000000000000
 0.000000050301   -0.099999928907    0.000000000000
 0.000000000000    0.000000000000    0.000000000000

 0.167586414657   -0.000000002136    0.000000000000
-0.000000002136   -0.100000095529    0.000000000000
 0.000000000000    0.000000000000    0.000000000000

 0.167586328672   -0.000000054705    0.000000000000
-0.000000054705   -0.100000047415    0.000000000000
 0.000000000000    0.000000000000    0.000000000000

 0.167586424262    0.000000059493    0.000000000000
 0.000000059493   -0.100000101333    0.000000000000
 0.000000000000    0.000000000000    0.000000000000

 0.167586673029    0.000000002323    0.000000000000
 0.000000002323   -0.100000241346    0.000000000000
 0.000000000000    0.000000000000    0.000000000000

 0.167586516006   -0.000000052311    0.000000000000
-0.000000052311   -0.100000153167    0.000000000000
 0.000000000000    0.000000000000    0.000000000000

 0.167586573492    0.000000072797    0.000000000000
 0.000000072797   -0.100000185306    0.000000000000
 0.000000000000    0.000000000000    0.000000000000

 0.167586857685   -0.000000006369    0.000000000000
-0.000000006369   -0.100000345715    0.000000000000
 0.000000000000    0.000000000000    0.000000000000

 0.167586692173   -0.000000020471    0.000000000000
-0.000000020471   -0.100000252420    0.000000000000
 0.000000000000    0.000000000000    0.000000000000

 0.167586721094    0.000000031372    0.000000000000
 0.000000031372   -0.100000269839    0.000000000000
 0.000000000000    0.000000000000    0.000000000000

 0.167586684390    0.000000078689    0.000000000000
 0.000000078689   -0.100000247716    0.000000000000
 0.000000000000    0.000000000000    0.000000000000

 0.167586434449   -0.000000021090    0.000000000000
-0.000000021090   -0.100000106973    0.000000000000
 0.000000000000    0.000000000000    0.000000000000

 0.167586367170    0.000000035350    0.000000000000
 0.000000035350   -0.100000068292    0.000000000000
 0.000000000000    0.000000000000    0.000000000000

 0.167586138370   -0.000000041412    0.000000000000
-0.000000041412   -0.099999939096    0.000000000000
 0.000000000000    0.000000000000    0.000000000000

 0.167585844536   -0.000000030700    0.000000000000
-0.000000030700   -0.099999774037    0.000000000000
 0.000000000000    0.000000000000    0.000000000000

 0.167585496095   -0.000000017610    0.000000000000
-0.000000017610   -0.099999578510    0.000000000000
 0.000000000000    0.000000000000    0.000000000000

 0.167585416031   -0.000000005293    0.000000000000
-0.000000005293   -0.099999531228    0.000000000000
 0.000000000000    0.000000000000    0.000000000000

 0.167585124255   -0.000000002855    0.000000000000
-0.000000002855   -0.099999366389    0.000000000000
 0.000000000000    0.000000000000    0.000000000000

 0.167584856913   -0.000000046376    0.000000000000
-0.000000046376   -0.099999216123    0.000000000000
 0.000000000000    0.000000000000    0.000000000000

 0.167584803761   -0.000000027034    0.000000000000
-0.000000027034   -0.099999186622    0.000000000000
 0.000000000000    0.000000000000    0.000000000000

 0.167584810246   -0.000000021589    0.000000000000
-0.000000021589   -0.099999190486    0.000000000000
 0.000000000000    0.000000000000    0.000000000000

 0.167584957563   -0.000000012863    0.000000000000
-0.000000012863   -0.099999273714    0.000000000000
 0.000000000000    0.000000000000    0.000000000000

 0.167585137409   -0.000000000994    0.000000000000
-0.000000000994   -0.099999374962    0.000000000000
 0.000000000000    0.000000000000    0.000000000000

 0.167585339272   -0.000000005054    0.000000000000
-0.000000005054   -0.099999488707    0.000000000000
 0.000000000000    0.000000000000    0.000000000000

 0.167585520598    0.000000003180    0.000000000000
 0.000000003180   -0.099999590589    0.000000000000
 0.000000000000    0.000000000000    0.000000000000

 0.167585696615    0.000000009402    0.000000000000
 0.000000009402   -0.099999689724    0.000000000000
 0.000000000000    0.000000000000    0.000000000000

 0.167585873782    0.000000004361    0.000000000000
 0.000000004361   -0.099999789752    0.000000000000
 0.000000000000    0.000000000000    0.000000000000

 0.167586046514   -0.000000005595    0.000000000000
-0.000000005595   -0.099999887370    0.000000000000
 0.000000000000    0.000000000000    0.000000000000

 0.167586207580   -0.000000008501    0.000000000000
-0.000000008501   -0.099999978392    0.000000000000
 0.000000000000    0.000000000000    0.000000000000

 0.167586350709   -0.000000004641    0.000000000000
-0.000000004641   -0.100000059291    0.000000000000
 0.000000000000    0.000000000000    0.000000000000

 0.167586478233   -0.000000000135    0.000000000000
-0.000000000135   -0.100000131395    0.000000000000
 0.000000000000    0.000000000000    0.000000000000

 0.167586591734    0.000000001078    0.000000000000
 0.000000001078   -0.100000195540    0.000000000000
 0.000000000000    0.000000000000    0.000000000000

 0.167586691295   -0.000000000557    0.000000000000
-0.000000000557   -0.100000251739    0.000000000000
 0.000000000000    0.000000000000    0.000000000000

 0.167586781383   -0.000000002757    0.000000000000
-0.000000002757   -0.100000302541    0.000000000000
 0.000000000000    0.000000000000    0.000000000000

 0.167586865389   -0.000000004230    0.000000000000
-0.000000004230   -0.100000349894    0.000000000000
 0.000000000000    0.000000000000    0.000000000000

 0.167586943340   -0.000000005327    0.000000000000
-0.000000005327   -0.100000393820    0.000000000000
 0.000000000000    0.000000000000    0.000000000000

 0.167587015792   -0.000000006173    0.000000000000
-0.000000006173   -0.100000434671    0.000000000000
 0.000000000000    0.000000000000    0.000000000000

 0.167587081372   -0.000000006561    0.000000000000
-0.000000006561   -0.100000471675    0.000000000000
 0.000000000000    0.000000000000    0.000000000000

 0.167587138131   -0.000000006357    0.000000000000
-0.000000006357   -0.100000503721    0.000000000000
 0.000000000000    0.000000000000    0.000000000000

 0.167587184391   -0.000000006089    0.000000000000
-0.000000006089   -0.100000529847    0.000000000000
 0.000000000000    0.000000000000    0.000000000000

 0.167587219548   -0.000000004189    0.000000000000
-0.000000004189   -0.100000549711    0.000000000000
 0.000000000000    0.000000000000    0.000000000000

 0.167587227322   -0.000000003792    0.000000000000
-0.000000003792   -0.100000554107    0.000000000000
 0.000000000000    0.000000000000    0.000000000000

 0.167587214962   -0.000000001112    0.000000000000
-0.000000001112   -0.100000547123    0.000000000000
 0.000000000000    0.000000000000    0.000000000000

 0.167587159954   -0.000000002309    0.000000000000
-0.000000002309   -0.100000516051    0.000000000000
 0.000000000000    0.000000000000    0.000000000000

 0.167587084500   -0.000000001437    0.000000000000
-0.000000001437   -0.100000473447    0.000000000000
 0.000000000000    0.000000000000    0.000000000000

 0.167586994333   -0.000000002112    0.000000000000
-0.000000002112   -0.100000422576    0.000000000000
 0.000000000000    0.000000000000    0.000000000000

 0.167586891354   -0.000000002614    0.000000000000
-0.000000002614   -0.100000364449    0.000000000000
 0.000000000000    0.000000000000    0.000000000000

 0.167586757960    0.000000002308    0.000000000000
 0.000000002308   -0.100000289167    0.000000000000
 0.000000000000    0.000000000000    0.000000000000

 0.167586633239   -0.000000009539    0.000000000000
-0.000000009539   -0.100000218708    0.000000000000
 0.000000000000    0.000000000000    0.000000000000

 0.167586457736    0.000000045829    0.000000000000
 0.000000045829   -0.100000119697    0.000000000000
 0.000000000000    0.000000000000    0.000000000000

 0.167586429993   -0.000000062347    0.000000000000
-0.000000062347   -0.100000104263    0.000000000000
 0.000000000000    0.000000000000    0.000000000000

 0.167586313929   -0.000000120314    0.000000000000
-0.000000120314   -0.100000040648    0.000000000000
 0.000000000000    0.000000000000    0.000000000000

 0.167585306918    0.000000032167    0.000000000000
 0.000000032167   -0.099999466237    0.000000000000
 0.000000000000    0.000000000000    0.000000000000

 0.167586234134    0.000000096472    0.000000000000
 0.000000096472   -0.099999995845    0.000000000000
 0.000000000000    0.000000000000    0.000000000000

 0.167586219362   -0.000000105479    0.000000000000
-0.000000105479   -0.099999987304    0.000000000000
 0.000000000000    0.000000000000    0.000000000000

 0.167585293236   -0.000000000657    0.000000000000
-0.000000000657   -0.099999458317    0.000000000000
 0.000000000000    0.000000000000    0.000000000000

 0.167586159540    0.000000100382    0.000000000000
 0.000000100382   -0.099999953554    0.000000000000
 0.000000000000    0.000000000000    0.000000000000

 0.167586148143   -0.000000111282    0.000000000000
-0.000000111282   -0.099999947114    0.000000000000
 0.000000000000    0.000000000000    0.000000000000

 0.167585269899   -0.000000007676    0.000000000000
-0.000000007676   -0.099999445159    0.000000000000
 0.000000000000    0.000000000000    0.000000000000

 0.167586185914    0.000000095898    0.000000000000
 0.000000095898   -0.099999968498    0.000000000000
 0.000000000000    0.000000000000    0.000000000000

 0.167586241086   -0.000000116725    0.000000000000
-0.000000116725   -0.099999999711    0.000000000000
 0.000000000000    0.000000000000    0.000000000000

 0.167585439860   -0.000000012564    0.000000000000
-0.000000012564   -0.099999541299    0.000000000000
 0.000000000000    0.000000000000    0.000000000000

 0.167586437669    0.000000094212    0.000000000000
 0.000000094212   -0.100000110850    0.000000000000
 0.000000000000    0.000000000000    0.000000000000

 0.167586562957   -0.000000112400    0.000000000000
-0.000000112400   -0.100000181621    0.000000000000
 0.000000000000    0.000000000000    0.000000000000

 0.167585795751   -0.000000002547    0.000000000000
-0.000000002547   -0.099999742314    0.000000000000
 0.000000000000    0.000000000000    0.000000000000

 0.167586785842    0.000000105630    0.000000000000
 0.000000105630   -0.100000307388    0.000000000000
 0.000000000000    0.000000000000    0.000000000000

 0.167586875171   -0.000000101512    0.000000000000
-0.000000101512   -0.100000357800    0.000000000000
 0.000000000000    0.000000000000    0.000000000000

 0.167586041190    0.000000001259    0.000000000000
 0.000000001259   -0.099999880838    0.000000000000
 0.000000000000    0.000000000000    0.000000000000

 0.167586944102    0.000000104128    0.000000000000
 0.000000104128   -0.100000396509    0.000000000000
 0.000000000000    0.000000000000    0.000000000000

 0.167587019220   -0.000000108363    0.000000000000
-0.000000108363   -0.100000438963    0.000000000000
 0.000000000000    0.000000000000    0.000000000000

 0.167586280292   -0.000000006600    0.000000000000
-0.000000006600   -0.100000015834    0.000000000000
 0.000000000000    0.000000000000    0.000000000000

 0.167587133761    0.000000067616    0.000000000000
 0.000000067616   -0.100000503503    0.000000000000
 0.000000000000    0.000000000000    0.000000000000

 0.167586662088    0.000000012069    0.000000000000
 0.000000012069   -0.100000235626    0.000000000000
 0.000000000000    0.000000000000    0.000000000000

 0.167586567183   -0.000000017422    0.000000000000
-0.000000017422   -0.100000181875    0.000000000000
 0.000000000000    0.000000000000    0.000000000000

 0.167586278888    0.000000002003    0.000000000000
 0.000000002003   -0.100000019085    0.000000000000
 0.000000000000    0.000000000000    0.000000000000

 0.167586056109    0.000000015331    0.000000000000
 0.000000015331   -0.099999892998    0.000000000000
 0.000000000000    0.000000000000    0.000000000000

 0.167585948174    0.000000081593    0.000000000000
 0.000000081593   -0.099999831313    0.000000000000
 0.000000000000    0.000000000000    0.000000000000

 0.167585615554   -0.000000012962    0.000000000000
-0.000000012962   -0.099999644703    0.000000000000
 0.000000000000    0.000000000000    0.000000000000

 0.167585354712   -0.000000043862    0.000000000000
-0.000000043862   -0.099999497155    0.000000000000
 0.000000000000    0.000000000000    0.000000000000

 0.167585111658    0.000000004206    0.000000000000
 0.000000004206   -0.099999360161    0.000000000000
 0.000000000000    0.000000000000    0.000000000000

 0.167584845197    0.000000008872    0.000000000000
 0.000000008872   -0.099999209321    0.000000000000
 0.000000000000    0.000000000000    0.000000000000

 0.167584782920   -0.000000019930    0.000000000000
-0.000000019930   -0.099999175595    0.000000000000
 0.000000000000    0.000000000000    0.000000000000

 0.167584950085   -0.000000012647    0.000000000000
-0.000000012647   -0.099999269543    0.000000000000
 0.000000000000    0.000000000000    0.000000000000

 0.167585122054   -0.000000004752    0.000000000000
-0.000000004752   -0.099999365843    0.000000000000
 0.000000000000    0.000000000000    0.000000000000

 0.167585319378   -0.000000011668    0.000000000000
-0.000000011668   -0.099999477032    0.000000000000
 0.000000000000    0.000000000000    0.000000000000

 0.167585527353   -0.000000003105    0.000000000000
-0.000000003105   -0.099999594369    0.000000000000
 0.000000000000    0.000000000000    0.000000000000

 0.167585717810    0.000000006037    0.000000000000
 0.000000006037   -0.099999701805    0.000000000000
 0.000000000000    0.000000000000    0.000000000000

 0.167585888024    0.000000003044    0.000000000000
 0.000000003044   -0.099999797749    0.000000000000
 0.000000000000    0.000000000000    0.000000000000

 0.167586050916   -0.000000005136    0.000000000000
-0.000000005136   -0.099999889678    0.000000000000
 0.000000000000    0.000000000000    0.000000000000

 0.167586214693   -0.000000008569    0.000000000000
-0.000000008569   -0.099999982291    0.000000000000
 0.000000000000    0.000000000000    0.000000000000

 0.167586366758   -0.000000003602    0.000000000000
-0.000000003602   -0.100000068360    0.000000000000
 0.000000000000    0.000000000000    0.000000000000

 0.167586495371    0.000000002492    0.000000000000
 0.000000002492   -0.100000141143    0.000000000000
 0.000000000000    0.000000000000    0.000000000000

 0.167586602647    0.000000003720    0.000000000000
 0.000000003720   -0.100000201783    0.000000000000
 0.000000000000    0.000000000000    0.000000000000

 0.167586697865    0.000000001486    0.000000000000
 0.000000001486   -0.100000255518    0.000000000000
 0.000000000000    0.000000000000    0.000000000000

 0.167586787387   -0.000000000733    0.000000000000
-0.000000000733   -0.100000305972    0.000000000000
 0.000000000000    0.000000000000    0.000000000000

 0.167586871754   -0.000000002295    0.000000000000
-0.000000002295   -0.100000353489    0.000000000000
 0.000000000000    0.000000000000    0.000000000000

 0.167586950463   -0.000000003347    0.000000000000
-0.000000003347   -0.100000397825    0.000000000000
 0.000000000000    0.000000000000    0.000000000000

 0.167587022538   -0.000000003844    0.000000000000
-0.000000003844   -0.100000438453    0.000000000000
 0.000000000000    0.000000000000    0.000000000000

 0.167587087672   -0.000000004209    0.000000000000
-0.000000004209   -0.100000475197    0.000000000000
 0.000000000000    0.000000000000    0.000000000000

 0.167587145282   -0.000000004307    0.000000000000
-0.000000004307   -0.100000507727    0.000000000000
 0.000000000000    0.000000000000    0.000000000000

 0.167587193581   -0.000000003499    0.000000000000
-0.000000003499   -0.100000535031    0.000000000000
 0.000000000000    0.000000000000    0.000000000000

 0.167587229425   -0.000000003017    0.000000000000
-0.000000003017   -0.100000555290    0.000000000000
 0.000000000000    0.000000000000    0.000000000000

 0.167587237023   -0.000000000523    0.000000000000
-0.000000000523   -0.100000559576    0.000000000000
 0.000000000000    0.000000000000    0.000000000000

 0.167587190405   -0.000000001596    0.000000000000
-0.000000001596   -0.100000533256    0.000000000000
 0.000000000000    0.000000000000    0.000000000000

 0.167587125662   -0.000000002123    0.000000000000
-0.000000002123   -0.100000496681    0.000000000000
 0.000000000000    0.000000000000    0.000000000000

 0.167587038406   -0.000000000245    0.000000000000
-0.000000000245   -0.100000447444    0.000000000000
 0.000000000000    0.000000000000    0.000000000000

 0.167586952413   -0.000000004420    0.000000000000
-0.000000004420   -0.100000398908    0.000000000000
 0.000000000000    0.000000000000    0.000000000000

 0.167586818901    0.000000004712    0.000000000000
 0.000000004712   -0.100000323530    0.000000000000
 0.000000000000    0.000000000000    0.000000000000

 0.167586715783   -0.000000005641    0.000000000000
-0.000000005641   -0.100000265391    0.000000000000
 0.000000000000    0.000000000000    0.000000000000

 0.167586532261    0.000000003448    0.000000000000
 0.000000003448   -0.100000161514    0.000000000000
 0.000000000000    0.000000000000    0.000000000000

 0.167586377719    0.000000005523    0.000000000000
 0.000000005523   -0.100000075296    0.000000000000
 0.000000000000    0.000000000000    0.000000000000

 0.167586468974   -0.000000038271    0.000000000000
-0.000000038271   -0.100000125431    0.000000000000
 0.000000000000    0.000000000000    0.000000000000

 0.167586028670    0.000000133667    0.000000000000
 0.000000133667   -0.099999875151    0.000000000000
 0.000000000000    0.000000000000    0.000000000000

 0.167585879679   -0.000000470972    0.000000000000
-0.000000470972   -0.099999795403    0.000000000000
 0.000000000000    0.000000000000    0.000000000000

 0.167585916965    0.000000454488    0.000000000000
 0.000000454488   -0.099999815840    0.000000000000
 0.000000000000    0.000000000000    0.000000000000

 0.167585783106    0.000000004669    0.000000000000
 0.000000004669   -0.099999736255    0.000000000000
 0.000000000000    0.000000000000    0.000000000000

 0.167585895387   -0.000000433539    0.000000000000
-0.000000433539   -0.099999803741    0.000000000000
 0.000000000000    0.000000000000    0.000000000000

 0.167585870963    0.000000432648    0.000000000000
 0.000000432648   -0.099999789950    0.000000000000
 0.000000000000    0.000000000000    0.000000000000

 0.167585732347   -0.000000000586    0.000000000000
-0.000000000586   -0.099999707604    0.000000000000
 0.000000000000    0.000000000000    0.000000000000

 0.167585876012   -0.000000433760    0.000000000000
-0.000000433760   -0.099999792860    0.000000000000
 0.000000000000    0.000000000000    0.000000000000

 0.167585906343    0.000000432842    0.000000000000
 0.000000432842   -0.099999810039    0.000000000000
 0.000000000000    0.000000000000    0.000000000000

 0.167585829253   -0.000000000203    0.000000000000
-0.000000000203   -0.099999762476    0.000000000000
 0.000000000000    0.000000000000    0.000000000000

 0.167586049203   -0.000000432670    0.000000000000
-0.000000432670   -0.099999890845    0.000000000000
 0.000000000000    0.000000000000    0.000000000000

 0.167586163009    0.000000435112    0.000000000000
 0.000000435112   -0.099999955149    0.000000000000
 0.000000000000    0.000000000000    0.000000000000

 0.167586157762    0.000000002532    0.000000000000
 0.000000002532   -0.099999948070    0.000000000000
 0.000000000000    0.000000000000    0.000000000000

 0.167586417373   -0.000000430934    0.000000000000
-0.000000430934   -0.100000098701    0.000000000000
 0.000000000000    0.000000000000    0.000000000000

 0.167586530249    0.000000435399    0.000000000000
 0.000000435399   -0.100000162364    0.000000000000
 0.000000000000    0.000000000000    0.000000000000

 0.167586490580    0.000000002656    0.000000000000
 0.000000002656   -0.100000135820    0.000000000000
 0.000000000000    0.000000000000    0.000000000000

 0.167586683468   -0.000000429270    0.000000000000
-0.000000429270   -0.100000248773    0.000000000000
 0.000000000000    0.000000000000    0.000000000000

 0.167586721549    0.000000430295    0.000000000000
 0.000000430295   -0.100000270273    0.000000000000
 0.000000000000    0.000000000000    0.000000000000

 0.167586665504   -0.000000002601    0.000000000000
-0.000000002601   -0.100000234565    0.000000000000
 0.000000000000    0.000000000000    0.000000000000

 0.167586850252   -0.000000416661    0.000000000000
-0.000000416661   -0.100000342743    0.000000000000
 0.000000000000    0.000000000000    0.000000000000

 0.167586922997    0.000000429384    0.000000000000
 0.000000429384   -0.100000384203    0.000000000000
 0.000000000000    0.000000000000    0.000000000000

 0.167586657209    0.000000015847    0.000000000000
 0.000000015847   -0.100000230021    0.000000000000
 0.000000000000    0.000000000000    0.000000000000

 0.167586778287    0.000000105187    0.000000000000
 0.000000105187   -0.100000301015    0.000000000000
 0.000000000000    0.000000000000    0.000000000000

 0.167586653569   -0.000000014010    0.000000000000
-0.000000014010   -0.100000231125    0.000000000000
 0.000000000000    0.000000000000    0.000000000000

 0.167586465232   -0.000000017497    0.000000000000
-0.000000017497   -0.100000123332    0.000000000000
 0.000000000000    0.000000000000    0.000000000000

 0.167586082000    0.000000025126    0.000000000000
 0.000000025126   -0.099999908101    0.000000000000
 0.000000000000    0.000000000000    0.000000000000

 0.167586116170   -0.000000048577    0.000000000000
-0.000000048577   -0.099999926386    0.000000000000
 0.000000000000    0.000000000000    0.000000000000

 0.167585711173   -0.000000064110    0.000000000000
-0.000000064110   -0.099999699504    0.000000000000
 0.000000000000    0.000000000000    0.000000000000

 0.167585403562    0.000000037051    0.000000000000
 0.000000037051   -0.099999525208    0.000000000000
 0.000000000000    0.000000000000    0.000000000000

 0.167585364626    0.000000017953    0.000000000000
 0.000000017953   -0.099999501866    0.000000000000
 0.000000000000    0.000000000000    0.000000000000

 0.167584926629   -0.000000040127    0.000000000000
-0.000000040127   -0.099999255890    0.000000000000
 0.000000000000    0.000000000000    0.000000000000

 0.167584741209   -0.000000009873    0.000000000000
-0.000000009873   -0.099999150773    0.000000000000
 0.000000000000    0.000000000000    0.000000000000

 0.167584705363    0.000000023096    0.000000000000
 0.000000023096   -0.099999131537    0.000000000000
 0.000000000000    0.000000000000    0.000000000000

 0.167584863136   -0.000000007469    0.000000000000
-0.000000007469   -0.099999220246    0.000000000000
 0.000000000000    0.000000000000    0.000000000000

 0.167585034770   -0.000000005346    0.000000000000
-0.000000005346   -0.099999316904    0.000000000000
 0.000000000000    0.000000000000    0.000000000000

 0.167585210218    0.000000002263    0.000000000000
 0.000000002263   -0.099999415415    0.000000000000
 0.000000000000    0.000000000000    0.000000000000

 0.167585418678    0.000000003516    0.000000000000
 0.000000003516   -0.099999533014    0.000000000000
 0.000000000000    0.000000000000    0.000000000000

 0.167585632874    0.000000006921    0.000000000000
 0.000000006921   -0.099999653925    0.000000000000
 0.000000000000    0.000000000000    0.000000000000

 0.167585812498    0.000000002252    0.000000000000
 0.000000002252   -0.099999755138    0.000000000000
 0.000000000000    0.000000000000    0.000000000000

 0.167585972230   -0.000000002105    0.000000000000
-0.000000002105   -0.099999845204    0.000000000000
 0.000000000000    0.000000000000    0.000000000000

 0.167586133121   -0.000000002732    0.000000000000
-0.000000002732   -0.099999936128    0.000000000000
 0.000000000000    0.000000000000    0.000000000000

 0.167586294822   -0.000000000689    0.000000000000
-0.000000000689   -0.100000027638    0.000000000000
 0.000000000000    0.000000000000    0.000000000000

 0.167586439098    0.000000000590    0.000000000000
 0.000000000590   -0.100000109298    0.000000000000
 0.000000000000    0.000000000000    0.000000000000

 0.167586555465   -0.000000000433    0.000000000000
-0.000000000433   -0.100000175127    0.000000000000
 0.000000000000    0.000000000000    0.000000000000

 0.167586653425   -0.000000001589    0.000000000000
-0.000000001589   -0.100000230469    0.000000000000
 0.000000000000    0.000000000000    0.000000000000

 0.167586744561   -0.000000001566    0.000000000000
-0.000000001566   -0.100000281864    0.000000000000
 0.000000000000    0.000000000000    0.000000000000

 0.167586831530   -0.000000001029    0.000000000000
-0.000000001029   -0.100000330846    0.000000000000
 0.000000000000    0.000000000000    0.000000000000

 0.167586913532   -0.000000000934    0.000000000000
-0.000000000934   -0.100000377021    0.000000000000
 0.000000000000    0.000000000000    0.000000000000

 0.167586989039   -0.000000001054    0.000000000000
-0.000000001054   -0.100000419563    0.000000000000
 0.000000000000    0.000000000000    0.000000000000

 0.167587057446   -0.000000001162    0.000000000000
-0.000000001162   -0.100000458136    0.000000000000
 0.000000000000    0.000000000000    0.000000000000

 0.167587119011   -0.000000001053    0.000000000000
-0.000000001053   -0.100000492879    0.000000000000
 0.000000000000    0.000000000000    0.000000000000

 0.167587172637   -0.000000001259    0.000000000000
-0.000000001259   -0.100000523175    0.000000000000
 0.000000000000    0.000000000000    0.000000000000

 0.167587215588   -0.000000001465    0.000000000000
-0.000000001465   -0.100000547465    0.000000000000
 0.000000000000    0.000000000000    0.000000000000

 0.167587244975   -0.000000000771    0.000000000000
-0.000000000771   -0.100000564108    0.000000000000
 0.000000000000    0.000000000000    0.000000000000


SCALARS   eHP   float
LOOKUP_TABLE default  0.154760152392
 0.154760096638
 0.154760035500
 0.154759979714
 0.154759473072
 0.154759641874
 0.154760383020
 0.154759912358
 0.154758068134
 0.154758061105
 0.154760465665
 0.154760459999
 0.154758039327
 0.154757989809
 0.154758000530
 0.154759913677
 0.154759528860
 0.154760292586
 0.154759398352
 0.154759263950
 0.154759186166
 0.154760462636
 0.154760471418
 0.154760472886
 0.154759892571
 0.154759791198
 0.154759687834
 0.154759604889
 0.154759506005
 0.154759393245
 0.154759301785
 0.154759213506
 0.154759134234
 0.154759091072
 0.154759054512
 0.154759013317
 0.154759065938
 0.154759141928
 0.154759232896
 0.154759332519
 0.154759437878
 0.154759546817
 0.154759650062
 0.154759750121
 0.154759858253
 0.154759959803
 0.154759897872
 0.154759805949
 0.154759703734
 0.154759618800
 0.154759539515
 0.154759426754
 0.154759326898
 0.154759249653
 0.154759164835
 0.154759115284
 0.154759096015
 0.154759059859
 0.154759028610
 0.154758993971
 0.154758983326
 0.154759020482
 0.154759100477
 0.154759196398
 0.154759295594
 0.154759406003
 0.154759515680
 0.154759619994
 0.154759729260
 0.154759838863
 0.154759939958
 0.154760021584
 0.154759997593
 0.154759925601
 0.154759816368
 0.154759717793
 0.154759649596
 0.154759573020
 0.154759481681
 0.154759392768
 0.154759303631
 0.154759223094
 0.154759171226
 0.154759140587
 0.154759126443
 0.154759137971
 0.154759121542
 0.154759157896
 0.154758981890
 0.154758937719
 0.154758962804
 0.154759011736
 0.154759107533
 0.154759218829
 0.154759329668
 0.154759448236
 0.154759560529
 0.154759667336
 0.154759784960
 0.154759899091
 0.154759991910
 0.154760062648
 0.154760085483
 0.154760053008
 0.154759908659
 0.154759828758
 0.154759710821
 0.154759642998
 0.154759598752
 0.154759495968
 0.154759408393
 0.154759345276
 0.154759246189
 0.154759186964
 0.154759174797
 0.154759140712
 0.154759159338
 0.154759215015
 0.154759254714
 0.154759057129
 0.154758854573
 0.154758929224
 0.154758979859
 0.154759063309
 0.154759172062
 0.154759289646
 0.154759410007
 0.154759527173
 0.154759639071
 0.154759753872
 0.154759870618
 0.154759973477
 0.154760050519
 0.154760102403
 0.154760166726
 0.154760062803
 0.154759959102
 0.154759794693
 0.154759724236
 0.154759632513
 0.154759578407
 0.154759539639
 0.154759442108
 0.154759365597
 0.154759318883
 0.154759236974
 0.154759196547
 0.154759202584
 0.154759191226
 0.154759246033
 0.154759337005
 0.154759353119
 0.154759258481
 0.154759119018
 0.154758841753
 0.154758764720
 0.154758872938
 0.154758982394
 0.154759086596
 0.154759197087
 0.154759323610
 0.154759450618
 0.154759569475
 0.154759687916
 0.154759805585
 0.154759916417
 0.154760012368
 0.154760082292
 0.154760135469
 0.154760192542
 0.154760217640
 0.154760128177
 0.154760015348
 0.154759898702
 0.154759789678
 0.154759694727
 0.154759627890
 0.154759577563
 0.154759525558
 0.154759458686
 0.154759384725
 0.154759322088
 0.154759266657
 0.154759223835
 0.154759207049
 0.154759214510
 0.154759262725
 0.154759347131
 0.154759399424
 0.154759439362
 0.154759372019
 0.154759248053
 0.154758945404
 0.154758699364
 0.154758700166
 0.154758771364
 0.154758913454
 0.154759045757
 0.154759156894
 0.154759277493
 0.154759407433
 0.154759531907
 0.154759652176
 0.154759771696
 0.154759884294
 0.154759983664
 0.154760063371
 0.154760126054
 0.154760183224
 0.154760234379
 0.154760235793
 0.154760146018
 0.154760016948
 0.154759924260
 0.154759740860
 0.154759712000
 0.154759572476
 0.154759532558
 0.154759545111
 0.154759437213
 0.154759378165
 0.154759376083
 0.154759275661
 0.154759241720
 0.154759278493
 0.154759229779
 0.154759265439
 0.154759392819
 0.154759421364
 0.154759490547
 0.154759589172
 0.154759633448
 0.154759387564
 0.154759270158
 0.154758988006
 0.154758771252
 0.154758580653
 0.154758671021
 0.154758737696
 0.154758894722
 0.154759056057
 0.154759189043
 0.154759316045
 0.154759444625
 0.154759571044
 0.154759694564
 0.154759813568
 0.154759920807
 0.154760010956
 0.154760086062
 0.154760155128
 0.154760214986
 0.154760266002
 0.154760315133
 0.154760283573
 0.154760196649
 0.154760093804
 0.154759966670
 0.154759888161
 0.154759636453
 0.154759673786
 0.154759597404
 0.154759468212
 0.154759526167
 0.154759476295
 0.154759330125
 0.154759370633
 0.154759328631
 0.154759207722
 0.154759285214
 0.154759292003
 0.154759237387
 0.154759395237
 0.154759477726
 0.154759460671
 0.154759632821
 0.154759686539
 0.154759635357
 0.154759572516
 0.154759423544
 0.154759095934
 0.154758791219
 0.154758630888
 0.154758534188
 0.154758594573
 0.154758681630
 0.154758812052
 0.154758971719
 0.154759132710
 0.154759273665
 0.154759402128
 0.154759527936
 0.154759652940
 0.154759773879
 0.154759885134
 0.154759980267
 0.154760060023
 0.154760132859
 0.154760198723
 0.154760255432
 0.154760304729
 0.154760348148
 0.154760357283
 0.154760294557
 0.154760208820
 0.154760102526
 0.154759979534
 0.154759877206
 0.154759751724
 0.154759582480
 0.154759494276
 0.154759480326
 0.154759453171
 0.154759415473
 0.154759368865
 0.154759324745
 0.154759290833
 0.154759269766
 0.154759263835
 0.154759276962
 0.154759313924
 0.154759380835
 0.154759464734
 0.154759541122
 0.154759617047
 0.154759711913
 0.154759728721
 0.154759757236
 0.154759655746
 0.154759565540
 0.154759395728
 0.154759083187
 0.154758998513
 0.154758642209
 0.154758446592
 0.154758407335
 0.154758549844
 0.154758678795
 0.154758819646
 0.154758969760
 0.154759145014
 0.154759305510
 0.154759439319
 0.154759563200
 0.154759687014
 0.154759805522
 0.154759911035
 0.154760000287
 0.154760078134
 0.154760151973
 0.154760218838
 0.154760278624
 0.154760329627
 0.154760369117
 0.154760387960
 0.154760332462
 0.154760260316
 0.154760157739
 0.154760057096
 0.154759922028
 0.154759823657
 0.154759682792
 0.154759635656
 0.154759508425
 0.154759328900
 0.154759488746
 0.154759449271
 0.154759240847
 0.154759365143
 0.154759333440
 0.154759151411
 0.154759314036
 0.154759330924
 0.154759207018
 0.154759439257
 0.154759526151
 0.154759446151
 0.154759683533
 0.154759765365
 0.154759666658
 0.154759818243
 0.154759884242
 0.154759801296
 0.154759563724
 0.154759648672
 0.154759228061
 0.154758942581
 0.154758745546
 0.154758602676
 0.154758373229
 0.154758319056
 0.154758447867
 0.154758609673
 0.154758754733
 0.154758898059
 0.154759061694
 0.154759236545
 0.154759390437
 0.154759519773
 0.154759641812
 0.154759761602
 0.154759871460
 0.154759965798
 0.154760047840
 0.154760123414
 0.154760193629
 0.154760258191
 0.154760314322
 0.154760360414
 0.154760395456
 0.154760400134
 0.154760339625
 0.154760267494
 0.154760162992
 0.154760071725
 0.154759911600
 0.154759832394
 0.154759716332
 0.154759397956
 0.154759383133
 0.154759300325
 0.154759376618
 0.154759340343
 0.154759207771
 0.154759273940
 0.154759260852
 0.154759171381
 0.154759287796
 0.154759333958
 0.154759313422
 0.154759500031
 0.154759597007
 0.154759592589
 0.154759763566
 0.154759817414
 0.154759763502
 0.154759906369
 0.154759953464
 0.154759816269
 0.154759624746
 0.154759566565
 0.154759174782
 0.154759117241
 0.154758876501
 0.154758466240
 0.154758354794
 0.154758280198
 0.154758388244
 0.154758597426
 0.154758758861
 0.154758914033
 0.154759077584
 0.154759249157
 0.154759409170
 0.154759546563
 0.154759669806
 0.154759785097
 0.154759888566
 0.154759978442
 0.154760060138
 0.154760135950
 0.154760206087
 0.154760271508
 0.154760328629
 0.154760375598
 0.154760412863
 0.154760426462
 0.154760374157
 0.154760306786
 0.154760222281
 0.154760116374
 0.154760016263
 0.154759845755
 0.154759807245
 0.154759450619
 0.154759464977
 0.154759260339
 0.154759372021
 0.154759277632
 0.154759255174
 0.154759396663
 0.154759189187
 0.154759160991
 0.154759324697
 0.154759155901
 0.154759181383
 0.154759405218
 0.154759305808
 0.154759403274
 0.154759680588
 0.154759600044
 0.154759689644
 0.154759922783
 0.154759775653
 0.154759829493
 0.154760095902
 0.154759940763
 0.154759968041
 0.154759933422
 0.154759699176
 0.154759636000
 0.154759421511
 0.154759146195
 0.154758819741
 0.154758744366
 0.154758470831
 0.154758220321
 0.154758170573
 0.154758176685
 0.154758314793
 0.154758483341
 0.154758672537
 0.154758842440
 0.154759007404
 0.154759173486
 0.154759335425
 0.154759486427
 0.154759620614
 0.154759740176
 0.154759846585
 0.154759939914
 0.154760024356
 0.154760103094
 0.154760176154
 0.154760244064
 0.154760305538
 0.154760358745
 0.154760402112
 0.154760435072
 0.154760442361
 0.154760430773
 0.154760379205
 0.154760308472
 0.154760223952
 0.154760127419
 0.154760002376
 0.154759885452
 0.154759720941
 0.154759694970
 0.154759586467
 0.154758641547
 0.154759511703
 0.154759497825
 0.154758628695
 0.154759441751
 0.154759431066
 0.154758606822
 0.154759466483
 0.154759518213
 0.154758766177
 0.154759702520
 0.154759819973
 0.154759099812
 0.154760028901
 0.154760112637
 0.154759329885
 0.154760177221
 0.154760247646
 0.154759554026
 0.154760354998
 0.154759912592
 0.154759823601
 0.154759553340
 0.154759344452
 0.154759243154
 0.154758931533
 0.154758686968
 0.154758459159
 0.154758209307
 0.154758151153
 0.154758307792
 0.154758468875
 0.154758653818
 0.154758848767
 0.154759027292
 0.154759186831
 0.154759339524
 0.154759493076
 0.154759635660
 0.154759756253
 0.154759856828
 0.154759946084
 0.154760029991
 0.154760109060
 0.154760182829
 0.154760250384
 0.154760311438
 0.154760365444
 0.154760410727
 0.154760444331
 0.154760451453
 0.154760407752
 0.154760347057
 0.154760265264
 0.154760184655
 0.154760059497
 0.154759962844
 0.154759790763
 0.154759646051
 0.154759731385
 0.154759318372
 0.154759179369
 0.154759214231
 0.154759088132
 0.154759194017
 0.154759171122
 0.154759040551
 0.154759175865
 0.154759204307
 0.154759131419
 0.154759338251
 0.154759444944
 0.154759439391
 0.154759683383
 0.154759789186
 0.154759751360
 0.154759932803
 0.154759968500
 0.154759915336
 0.154760089119
 0.154760157373
 0.154759907578
 0.154760021487
 0.154759904656
 0.154759727874
 0.154759368799
 0.154759400675
 0.154759021294
 0.154758732833
 0.154758696127
 0.154758285738
 0.154758111852
 0.154758078408
 0.154758226251
 0.154758387105
 0.154758551490
 0.154758746891
 0.154758947682
 0.154759116036
 0.154759265754
 0.154759416591
 0.154759568208
 0.154759703489
 0.154759812595
 0.154759904431
 0.154759989855
 0.154760071364
 0.154760148215
 0.154760218984
 0.154760283104
 0.154760340814
 0.154760391087
 0.154760431358
 0.154760458914

SCALARS   eHP_nl   float
LOOKUP_TABLE default  0.154760152392
 0.154760096638
 0.154760035500
 0.154759979714
 0.154759473072
 0.154759641874
 0.154760383020
 0.154759912358
 0.154758068134
 0.154758061105
 0.154760465665
 0.154760459999
 0.154758039327
 0.154757989809
 0.154758000530
 0.154759913677
 0.154759528860
 0.154760292586
 0.154759398352
 0.154759263950
 0.154759186166
 0.154760462636
 0.154760471418
 0.154760472886
 0.154759892571
 0.154759791198
 0.154759687834
 0.154759604889
 0.154759506005
 0.154759393245
 0.154759301785
 0.154759213506
 0.154759134234
 0.154759091072
 0.154759054512
 0.154759013317
 0.154759065938
 0.154759141928
 0.154759232896
 0.154759332519
 0.154759437878
 0.154759546817
 0.154759650062
 0.154759750121
 0.154759858253
 0.154759959803
 0.154759897872
 0.154759805949
 0.154759703734
 0.154759618800
 0.154759539515
 0.154759426754
 0.154759326898
 0.154759249653
 0.154759164835
 0.154759115284
 0.154759096015
 0.154759059859
 0.154759028610
 0.154758993971
 0.154758983326
 0.154759020482
 0.154759100477
 0.154759196398
 0.154759295594
 0.154759406003
 0.154759515680
 0.154759619994
 0.154759729260
 0.154759838863
 0.154759939958
 0.154760021584
 0.154759997593
 0.154759925601
 0.154759816368
 0.154759717793
 0.154759649596
 0.154759573020
 0.154759481681
 0.154759392768
 0.154759303631
 0.154759223094
 0.154759171226
 0.154759140587
 0.154759126443
 0.154759137971
 0.154759121542
 0.154759157896
 0.154758981890
 0.154758937719
 0.154758962804
 0.154759011736
 0.154759107533
 0.154759218829
 0.154759329668
 0.154759448236
 0.154759560529
 0.154759667336
 0.154759784960
 0.154759899091
 0.154759991910
 0.154760062648
 0.154760085483
 0.154760053008
 0.154759908659
 0.154759828758
 0.154759710821
 0.154759642998
 0.154759598752
 0.154759495968
 0.154759408393
 0.154759345276
 0.154759246189
 0.154759186964
 0.154759174797
 0.154759140712
 0.154759159338
 0.154759215015
 0.154759254714
 0.154759057129
 0.154758854573
 0.154758929224
 0.154758979859
 0.154759063309
 0.154759172062
 0.154759289646
 0.154759410007
 0.154759527173
 0.154759639071
 0.154759753872
 0.154759870618
 0.154759973477
 0.154760050519
 0.154760102403
 0.154760166726
 0.154760062803
 0.154759959102
 0.154759794693
 0.154759724236
 0.154759632513
 0.154759578407
 0.154759539639
 0.154759442108
 0.154759365597
 0.154759318883
 0.154759236974
 0.154759196547
 0.154759202584
 0.154759191226
 0.154759246033
 0.154759337005
 0.154759353119
 0.154759258481
 0.154759119018
 0.154758841753
 0.154758764720
 0.154758872938
 0.154758982394
 0.154759086596
 0.154759197087
 0.154759323610
 0.154759450618
 0.154759569475
 0.154759687916
 0.154759805585
 0.154759916417
 0.154760012368
 0.154760082292
 0.154760135469
 0.154760192542
 0.154760217640
 0.154760128177
 0.154760015348
 0.154759898702
 0.154759789678
 0.154759694727
 0.154759627890
 0.154759577563
 0.154759525558
 0.154759458686
 0.154759384725
 0.154759322088
 0.154759266657
 0.154759223835
 0.154759207049
 0.154759214510
 0.154759262725
 0.154759347131
 0.154759399424
 0.154759439362
 0.154759372019
 0.154759248053
 0.154758945404
 0.154758699364
 0.154758700166
 0.154758771364
 0.154758913454
 0.154759045757
 0.154759156894
 0.154759277493
 0.154759407433
 0.154759531907
 0.154759652176
 0.154759771696
 0.154759884294
 0.154759983664
 0.154760063371
 0.154760126054
 0.154760183224
 0.154760234379
 0.154760235793
 0.154760146018
 0.154760016948
 0.154759924260
 0.154759740860
 0.154759712000
 0.154759572476
 0.154759532558
 0.154759545111
 0.154759437213
 0.154759378165
 0.154759376083
 0.154759275661
 0.154759241720
 0.154759278493
 0.154759229779
 0.154759265439
 0.154759392819
 0.154759421364
 0.154759490547
 0.154759589172
 0.154759633448
 0.154759387564
 0.154759270158
 0.154758988006
 0.154758771252
 0.154758580653
 0.154758671021
 0.154758737696
 0.154758894722
 0.154759056057
 0.154759189043
 0.154759316045
 0.154759444625
 0.154759571044
 0.154759694564
 0.154759813568
 0.154759920807
 0.154760010956
 0.154760086062
 0.154760155128
 0.154760214986
 0.154760266002
 0.154760315133
 0.154760283573
 0.154760196649
 0.154760093804
 0.154759966670
 0.154759888161
 0.154759636453
 0.154759673786
 0.154759597404
 0.154759468212
 0.154759526167
 0.154759476295
 0.154759330125
 0.154759370633
 0.154759328631
 0.154759207722
 0.154759285214
 0.154759292003
 0.154759237387
 0.154759395237
 0.154759477726
 0.154759460671
 0.154759632821
 0.154759686539
 0.154759635357
 0.154759572516
 0.154759423544
 0.154759095934
 0.154758791219
 0.154758630888
 0.154758534188
 0.154758594573
 0.154758681630
 0.154758812052
 0.154758971719
 0.154759132710
 0.154759273665
 0.154759402128
 0.154759527936
 0.154759652940
 0.154759773879
 0.154759885134
 0.154759980267
 0.154760060023
 0.154760132859
 0.154760198723
 0.154760255432
 0.154760304729
 0.154760348148
 0.154760357283
 0.154760294557
 0.154760208820
 0.154760102526
 0.154759979534
 0.154759877206
 0.154759751724
 0.154759582480
 0.154759494276
 0.154759480326
 0.154759453171
 0.154759415473
 0.154759368865
 0.154759324745
 0.154759290833
 0.154759269766
 0.154759263835
 0.154759276962
 0.154759313924
 0.154759380835
 0.154759464734
 0.154759541122
 0.154759617047
 0.154759711913
 0.154759728721
 0.154759757236
 0.154759655746
 0.154759565540
 0.154759395728
 0.154759083187
 0.154758998513
 0.154758642209
 0.154758446592
 0.154758407335
 0.154758549844
 0.154758678795
 0.154758819646
 0.154758969760
 0.154759145014
 0.154759305510
 0.154759439319
 0.154759563200
 0.154759687014
 0.154759805522
 0.154759911035
 0.154760000287
 0.154760078134
 0.154760151973
 0.154760218838
 0.154760278624
 0.154760329627
 0.154760369117
 0.154760387960
 0.154760332462
 0.154760260316
 0.154760157739
 0.154760057096
 0.154759922028
 0.154759823657
 0.154759682792
 0.154759635656
 0.154759508425
 0.154759328900
 0.154759488746
 0.154759449271
 0.154759240847
 0.154759365143
 0.154759333440
 0.154759151411
 0.154759314036
 0.154759330924
 0.154759207018
 0.154759439257
 0.154759526151
 0.154759446151
 0.154759683533
 0.154759765365
 0.154759666658
 0.154759818243
 0.154759884242
 0.154759801296
 0.154759563724
 0.154759648672
 0.154759228061
 0.154758942581
 0.154758745546
 0.154758602676
 0.154758373229
 0.154758319056
 0.154758447867
 0.154758609673
 0.154758754733
 0.154758898059
 0.154759061694
 0.154759236545
 0.154759390437
 0.154759519773
 0.154759641812
 0.154759761602
 0.154759871460
 0.154759965798
 0.154760047840
 0.154760123414
 0.154760193629
 0.154760258191
 0.154760314322
 0.154760360414
 0.154760395456
 0.154760400134
 0.154760339625
 0.154760267494
 0.154760162992
 0.154760071725
 0.154759911600
 0.154759832394
 0.154759716332
 0.154759397956
 0.154759383133
 0.154759300325
 0.154759376618
 0.154759340343
 0.154759207771
 0.154759273940
 0.154759260852
 0.154759171381
 0.154759287796
 0.154759333958
 0.154759313422
 0.154759500031
 0.154759597007
 0.154759592589
 0.154759763566
 0.154759817414
 0.154759763502
 0.154759906369
 0.154759953464
 0.154759816269
 0.154759624746
 0.154759566565
 0.154759174782
 0.154759117241
 0.154758876501
 0.154758466240
 0.154758354794
 0.154758280198
 0.154758388244
 0.154758597426
 0.154758758861
 0.154758914033
 0.154759077584
 0.154759249157
 0.154759409170
 0.154759546563
 0.154759669806
 0.154759785097
 0.154759888566
 0.154759978442
 0.154760060138
 0.154760135950
 0.154760206087
 0.154760271508
 0.154760328629
 0.154760375598
 0.154760412863
 0.154760426462
 0.154760374157
 0.154760306786
 0.154760222281
 0.154760116374
 0.154760016263
 0.154759845755
 0.154759807245
 0.154759450619
 0.154759464977
 0.154759260339
 0.154759372021
 0.154759277632
 0.154759255174
 0.154759396663
 0.154759189187
 0.154759160991
 0.154759324697
 0.154759155901
 0.154759181383
 0.154759405218
 0.154759305808
 0.154759403274
 0.154759680588
 0.154759600044
 0.154759689644
 0.154759922783
 0.154759775653
 0.154759829493
 0.154760095902
 0.154759940763
 0.154759968041
 0.154759933422
 0.154759699176
 0.154759636000
 0.154759421511
 0.154759146195
 0.154758819741
 0.154758744366
 0.154758470831
 0.154758220321
 0.154758170573
 0.154758176685
 0.154758314793
 0.154758483341
 0.154758672537
 0.154758842440
 0.154759007404
 0.154759173486
 0.154759335425
 0.154759486427
 0.154759620614
 0.154759740176
 0.154759846585
 0.154759939914
 0.154760024356
 0.154760103094
 0.154760176154
 0.154760244064
 0.154760305538
 0.154760358745
 0.154760402112
 0.154760435072
 0.154760442361
 0.154760430773
 0.154760379205
 0.154760308472
 0.154760223952
 0.154760127419
 0.154760002376
 0.154759885452
 0.154759720941
 0.154759694970
 0.154759586467
 0.154758641547
 0.154759511703
 0.154759497825
 0.154758628695
 0.154759441751
 0.154759431066
 0.154758606822
 0.154759466483
 0.154759518213
 0.154758766177
 0.154759702520
 0.154759819973
 0.154759099812
 0.154760028901
 0.154760112637
 0.154759329885
 0.154760177221
 0.154760247646
 0.154759554026
 0.154760354998
 0.154759912592
 0.154759823601
 0.154759553340
 0.154759344452
 0.154759243154
 0.154758931533
 0.154758686968
 0.154758459159
 0.154758209307
 0.154758151153
 0.154758307792
 0.154758468875
 0.154758653818
 0.154758848767
 0.154759027292
 0.154759186831
 0.154759339524
 0.154759493076
 0.154759635660
 0.154759756253
 0.154759856828
 0.154759946084
 0.154760029991
 0.154760109060
 0.154760182829
 0.154760250384
 0.154760311438
 0.154760365444
 0.154760410727
 0.154760444331
 0.154760451453
 0.154760407752
 0.154760347057
 0.154760265264
 0.154760184655
 0.154760059497
 0.154759962844
 0.154759790763
 0.154759646051
 0.154759731385
 0.154759318372
 0.154759179369
 0.154759214231
 0.154759088132
 0.154759194017
 0.154759171122
 0.154759040551
 0.154759175865
 0.154759204307
 0.154759131419
 0.154759338251
 0.154759444944
 0.154759439391
 0.154759683383
 0.154759789186
 0.154759751360
 0.154759932803
 0.154759968500
 0.154759915336
 0.154760089119
 0.154760157373
 0.154759907578
 0.154760021487
 0.154759904656
 0.154759727874
 0.154759368799
 0.154759400675
 0.154759021294
 0.154758732833
 0.154758696127
 0.154758285738
 0.154758111852
 0.154758078408
 0.154758226251
 0.154758387105
 0.154758551490
 0.154758746891
 0.154758947682
 0.154759116036
 0.154759265754
 0.154759416591
 0.154759568208
 0.154759703489
 0.154759812595
 0.154759904431
 0.154759989855
 0.154760071364
 0.154760148215
 0.154760218984
 0.154760283104
 0.154760340814
 0.154760391087
 0.154760431358
 0.154760458914

